p sp 13620 33863
a 1 11068 35.1894
a 1 2 1.4033
a 2 8424 1.7698
a 2 3 1.9865
a 3 9929 0.3492
a 4 2956 8.5961
a 4 12198 38.063
a 4 13345 9.3161
a 4 1040 23.0566
a 5 1541 24.3418
a 5 6 8.8826
a 5 1543 71.3406
a 5 12451 22.6786
a 6 12199 0.5508
a 6 13460 8.2454
a 6 383 4.3798
a 6 5 8.8826
a 7 9882 2.7007
a 7 11083 2.0887
a 8 685 2.6554
a 8 7769 3.1342
a 8 7705 3.217
a 8 7704 3.3415
a 9 671 2.795
a 9 655 4.0975
a 9 441 16.3231
a 10 630 4.3279
a 10 655 166.4924
a 10 11 18.815
a 10 9800 20.9909
a 11 10 18.815
a 11 261 823.0964
a 11 631 4.1983
a 11 11658 9.7078
a 12 11866 0.9
a 12 9799 1.9922
a 13 14 20.1312
a 13 310 6.4058
a 14 304 6.6514
a 14 13 88.1959
a 14 8680 20.3342
a 15 9419 20.3299
a 15 22 158.0939
a 15 314 7.421
a 16 10015 0.6703
a 16 11936 10.944
a 17 446 4.1998
a 17 445 4.3798
a 17 18 16.8854
a 18 667 4.3913
a 18 653 4.181
a 18 669 16.8566
a 19 1041 6.1488
a 19 12199 5.9299
a 20 460 8.6818
a 20 12368 21.073
a 20 8914 8.6767
a 21 301 8.8164
a 21 312 20.083
a 21 13336 422.143
a 22 92 18.3413
a 22 1092 189.1153
a 22 15 2.8613
a 23 8374 12.4733
a 23 855 33.1945
a 24 23 12.5878
a 25 9819 27.7531
a 26 29 15.318
a 26 163 1.4522
a 27 197 23.9942
a 27 9465 11.1708
a 28 9607 23.526
a 28 183 11.0318
a 28 104 18.0706
a 29 164 1.2672
a 29 5245 15.9127
a 29 9504 5.9544
a 30 13605 19.7741
a 30 169 10.1894
a 30 9346 7.7148
a 30 11397 7.9502
a 31 9378 25.0748
a 31 2002 1.8641
a 32 2450 0.7308
a 32 10895 3.407
a 33 10241 5.4446
a 34 495 18.1181
a 35 754 1.3421
a 35 8035 8.4953
a 36 12126 0.8834
a 36 851 19.9829
a 36 395 6.4642
a 37 10030 4.2458
a 38 10858 1.0426
a 38 13615 8.0647
a 39 2533 0.8222
a 39 12533 17.6321
a 40 12094 6.5866
a 40 7420 14.3654
a 41 6997 1.5962
a 41 11973 1.5624
a 41 10109 2.0383
a 42 10944 26.627
a 42 9606 15.8429
a 42 224 108.5948
a 43 8151 2.2558
a 44 45 6.6974
a 44 10123 2.8159
a 44 8452 474.8977
a 45 628 4.4273
a 45 10069 0.3492
a 45 44 6.6974
a 46 10123 19.6934
a 46 7673 59.4893
a 47 13079 15.0466
a 47 12436 7.7535
a 48 656 4.829
a 48 9949 26.0482
a 49 665 4.3006
a 49 671 1.6834
a 50 9948 0.7193
a 50 9949 5.4324
a 51 2800 2.5834
a 51 7424 4.1522
a 52 2765 6.0545
a 52 2800 15.1291
a 53 165 1.2845
a 53 10164 23.67
a 54 60 8.3772
a 55 4884 6.6802
a 55 4889 25.5449
a 56 12926 0.7704
a 56 4533 7.2972
a 57 10695 2.0477
a 57 59 9.1001
a 57 9163 6.2395
a 59 6649 34.4962
a 59 57 9.1001
a 59 9281 611.2419
a 60 4890 3.209
a 60 4891 677.6378
a 61 10527 2.8166
a 61 10530 0.9742
a 62 6640 4.0392
a 62 6618 17.455
a 62 12578 35.9662
a 63 12806 0.9713
a 63 11166 75.2418
a 63 12578 26.9186
a 64 175 4.4603
a 65 174 1.0058
a 66 1568 1.2434
a 67 1985 13.8737
a 67 1941 22.883
a 67 12489 0.6091
a 68 3037 0.7243
a 68 2885 16.0603
a 68 11085 212.9067
a 69 4773 22.2005
a 70 133 18.1397
a 70 466 4.397
a 70 124 9.4406
a 70 9346 10.9188
a 71 11145 0.3499
a 71 12491 2.3803
a 71 12841 22.5792
a 72 7532 9.9158
a 72 751 31.0111
a 73 2015 0.6048
a 74 577 6.4894
a 74 75 20.1348
a 75 1566 0.7474
a 75 91 20.1499
a 76 746 1.381
a 76 12462 1.3205
a 77 7674 11.8793
a 78 705 3.8426
a 78 105 4.2487
a 78 714 14.1242
a 79 396 3.803
a 79 264 3.5755
a 79 319 197.2671
a 80 83 2.4365
a 80 508 18.2167
a 80 316 3.4466
a 81 2563 4.4352
a 81 396 4.2091
a 81 2454 18.2081
a 81 497 368.9708
a 82 108 13.4928
a 82 84 6.8278
a 82 12466 4.8355
a 83 80 2.4365
a 83 501 20.5149
a 83 7613 13.104
a 84 2561 5.3856
a 84 82 6.8278
a 85 512 3.7519
a 85 518 3.4682
a 85 4386 22.6555
a 85 2561 3.5669
a 86 749 0.6746
a 86 36 9.6142
a 87 11071 0.5026
a 87 11072 5.1682
a 87 2909 4.8838
a 88 11972 154.5637
a 88 7580 2.5034
a 88 2454 18.2556
a 88 316 97.967
a 89 516 22.9061
a 89 721 13.7916
a 89 517 4.086
a 89 514 3.6454
a 90 98 21.1572
a 90 501 3.9802
a 90 4470 17.7955
a 90 2534 4.1969
a 91 1567 0.6638
a 91 300 5.6722
a 91 2417 8.1648
a 92 315 6.6341
a 92 11069 3.4279
a 92 22 402.8044
a 92 566 18.9756
a 93 11069 1.7957
a 93 11070 2.3767
a 93 1092 13.0874
a 94 1093 20.983
a 94 97 20.7619
a 94 1097 326.8785
a 95 5137 17.1641
a 95 10840 22.5994
a 95 9454 52.4215
a 96 265 77.8222
a 96 12512 20.749
a 97 1096 14.5303
a 97 1094 6.9998
a 97 94 1277.3205
a 98 90 21.1572
a 98 504 3.7872
a 98 251 19.2046
a 98 718 4.2833
a 99 1298 6.7961
a 99 2946 18.1202
a 99 3137 5.773
a 100 707 3.6979
a 100 116 4.0543
a 101 12813 3.0568
a 101 8407 2.2493
a 101 8067 20.3537
a 102 322 4.3747
a 102 497 777.7697
a 102 1528 8.7667
a 102 498 19.9116
a 103 184 15.1006
a 103 177 7.5816
a 103 9465 8.761
a 103 197 11.2234
a 104 26 38.5726
a 104 28 18.0706
a 104 186 11.3897
a 105 78 4.2487
a 105 686 4.8946
a 105 688 21.7404
a 106 2560 2.039
a 106 116 5.0335
a 106 690 45.105
a 107 2844 5.881
a 107 7747 0.7992
a 107 159 25.4736
a 108 2530 22.6771
a 108 78 5.3258
a 109 2845 161.0284
a 109 7746 0.6271
a 109 107 15.4973
a 110 178 9.9986
a 110 214 7.2727
a 110 114 2.8346
a 111 687 4.6534
a 111 691 6.3864
a 111 13023 172.5538
a 112 752 806.9268
a 112 7398 2.0534
a 112 202 39.527
a 113 356 158.7344
a 113 7523 3.0888
a 113 9959 5.9126
a 114 9465 15.1488
a 114 110 2.8346
a 114 184 8.6069
a 115 9732 9.2686
a 115 332 5.009
a 115 341 16.3159
a 115 727 4.4467
a 116 702 34.2657
a 116 699 16.5902
a 116 688 3.8182
a 116 100 4.0543
a 116 106 5.0335
a 117 9351 5.1782
a 118 123 25.0373
a 118 9579 1577.3866
a 119 10058 7.5578
a 119 9579 11.394
a 119 125 8.5111
a 119 2798 43.6522
a 120 467 9.4327
a 121 168 5.7154
a 121 12270 2.2147
a 122 13606 2.0455
a 122 9603 11.597
a 122 13601 13.7484
a 122 470 8.5601
a 123 118 127.5069
a 123 118 10.8662
a 124 70 9.4406
a 124 1774 7.8379
a 125 11508 7.501
a 125 127 252.2927
a 125 119 8.5111
a 125 463 9.2246
a 126 2797 1.1059
a 126 10108 7.7054
a 126 128 5.0594
a 127 10108 54.9651
a 127 125 5.814
a 127 13598 21.7872
a 128 2798 7.5514
a 128 13603 7.6471
a 128 126 5.0594
a 129 9601 5.2402
a 129 13603 13.6739
a 129 9600 5.2121
a 130 11397 5.1538
a 130 131 9.4615
a 131 130 19.4321
a 131 130 9.4615
a 131 161 9.612
a 132 550 7.3678
a 132 1286 82.3318
a 132 1284 8.0719
a 133 70 626.9034
a 133 469 19.062
a 133 464 5.3683
a 133 9202 7.4866
a 134 7923 9.9518
a 134 8255 6.5203
a 134 8048 9.707
a 135 10944 4.1594
a 135 11408 22.3934
a 135 8709 3.0276
a 136 8352 11.4228
a 136 7921 24.979
a 137 12082 0.5263
a 137 8302 21.703
a 137 8310 2.5078
a 138 7741 0.7654
a 138 2918 56.2401
a 138 11000 11.9506
a 139 8610 6.1416
a 140 13092 1.615
a 140 9622 24.3331
a 141 2529 1.0152
a 141 2532 11.867
a 142 7963 4.3121
a 142 10222 15.7306
a 142 9473 6.0602
a 143 1503 1.8526
a 143 7304 18.0497
a 144 13345 16.4988
a 144 7687 9.7164
a 145 8057 153.8981
a 145 8049 8.7458
a 145 11165 3.8124
a 146 1025 0.769
a 146 1042 47.9671
a 146 362 35.1686
a 147 11972 0.6055
a 147 504 5.0724
a 147 11101 5.8687
a 148 11632 6.408
a 148 11639 9.1404
a 148 6779 19.9437
a 149 2763 0.6538
a 149 9043 5.0443
a 149 5056 7.1633
a 150 11957 1.1578
a 150 151 15.0854
a 151 1664 1.0699
a 151 2796 5.6462
a 152 11615 1.6062
a 153 12003 4.4467
a 153 13358 6.827
a 154 3523 4.127
a 154 7726 2.6165
a 154 2964 20.3731
a 155 1531 5.0839
a 155 3529 274.5276
a 155 9106 12.8023
a 156 2875 7.0906
a 156 2918 4.5691
a 156 2824 111.3799
a 157 9319 12.114
a 157 3529 18.3643
a 157 3526 2.7886
a 157 2485 5.4554
a 158 2846 4.7585
a 158 2568 4.9255
a 158 2564 16.7018
a 159 7744 0.7826
a 159 2843 5.8486
a 159 2563 19.9375
a 160 7737 7.4045
a 160 3526 31.6579
a 160 2825 23.2992
a 161 11508 4.9118
a 161 13587 4.495
a 161 13352 2.512
a 161 131 9.612
a 162 7396 8.1144
a 162 10858 10.4364
a 162 10100 2.1154
a 163 10099 9.8273
a 164 29 1.2672
a 164 163 15.3468
a 164 223 14.6844
a 165 10934 24.3878
a 165 10824 115.8967
a 165 53 1.2845
a 166 43 4.4158
a 166 1859 1.1894
a 167 11363 1.6034
a 167 2017 21.5203
a 167 2394 16.6118
a 168 76 2.3076
a 168 13073 4.0536
a 169 30 10.1894
a 169 8755 4.207
a 170 7506 0.8928
a 170 11982 3.4265
a 171 2528 6.6744
a 171 173 5.3568
a 171 2817 29.8411
a 172 9960 1.0613
a 172 9413 22.8686
a 173 171 5.3568
a 173 7744 6.1337
a 173 8134 7.1014
a 173 2816 27.2902
a 174 64 2.263
a 175 1 17.8373
a 175 1546 1.9354
a 176 2446 21.0874
a 177 8523 11.2687
a 177 186 15.9199
a 177 103 7.5816
a 178 8008 2.3328
a 178 8009 2.2615
a 178 110 9.9986
a 178 181 6.907
a 179 8008 2.0066
a 179 12813 13.9961
a 180 8011 2.0693
a 180 179 6.2914
a 180 8007 2.7209
a 180 11734 4.2394
a 181 8017 1.8461
a 181 10221 0.1872
a 181 178 6.907
a 182 11740 0.5054
a 182 12315 2.4242
a 182 8016 7.9207
a 183 221 14.1869
a 183 9491 23.6081
a 183 224 43.2122
a 183 28 11.0318
a 184 225 2.8598
a 184 114 37.5048
a 184 185 7.6514
a 185 752 1.1153
a 185 177 15.0336
a 185 184 7.6514
a 186 177 15.9199
a 186 104 11.3897
a 186 203 12.582
a 186 202 13.6714
a 187 192 5.4619
a 187 250 2.2507
a 187 201 13.0946
a 187 190 15.0005
a 188 250 2.6921
a 188 7328 0.8698
a 189 190 5.0292
a 189 188 15.1099
a 190 189 5.0292
a 190 191 8.7703
a 190 187 15.0005
a 191 194 6.3886
a 191 8670 10.7626
a 191 190 8.7703
a 191 209 5.6304
a 192 8670 1.8504
a 192 187 5.4619
a 192 206 13.3438
a 193 194 10.5034
a 193 8670 4.9334
a 193 206 16.4477
a 194 193 10.5034
a 194 191 182.4989
a 194 210 10.0526
a 195 196 36.463
a 195 209 4.9486
a 195 210 5.827
a 196 207 5.0803
a 196 195 5.4043
a 196 8492 5.3345
a 197 8523 7.5305
a 197 103 11.2234
a 198 7397 3.3329
a 198 203 13.6498
a 198 202 11.1643
a 199 200 3.5993
a 199 7397 3.6223
a 199 7328 11.3789
a 200 201 2.5409
a 200 199 3.5993
a 200 250 11.9801
a 201 206 7.056
a 201 200 2.5409
a 201 187 13.0946
a 202 198 11.1643
a 202 186 13.6714
a 202 112 1.2902
a 203 198 13.6498
a 203 205 16.6421
a 203 186 12.582
a 204 7287 17.3592
a 204 5245 29.2805
a 204 5247 9.8114
a 204 205 18.931
a 205 5244 11.3004
a 205 9343 10.5538
a 205 204 18.931
a 205 203 16.6421
a 206 193 16.4477
a 206 201 7.056
a 206 192 44.1175
a 207 196 5.0803
a 207 214 8.2987
a 207 208 11.8332
a 207 213 9.3607
a 208 225 6.8587
a 208 207 11.8332
a 208 214 125.9285
a 209 225 257.4929
a 209 195 4.9486
a 209 191 5.6304
a 210 8492 51.1523
a 210 194 10.0526
a 210 195 5.827
a 211 12783 6.4035
a 211 8492 11.2003
a 211 212 5.1703
a 212 196 185.7314
a 213 207 277.8627
a 213 8498 5.0875
a 213 10218 7.5125
a 214 207 8.2987
a 214 110 7.2727
a 214 208 3.4416
a 215 7285 0.7322
a 215 8495 7.0906
a 215 13247 15.1452
a 216 217 3.6122
a 216 219 16.1078
a 216 223 18.5191
a 217 216 43.2251
a 217 220 15.9862
a 217 8494 4.7606
a 218 7391 216.1382
a 218 223 16.7666
a 218 219 18.9547
a 219 216 243.7126
a 219 220 3.5633
a 219 218 18.9547
a 220 217 15.9862
a 220 8493 8.5226
a 220 219 3.5633
a 221 183 14.1869
a 221 7391 17.3822
a 221 222 55.7473
a 222 221 11.8267
a 222 9606 21.9449
a 222 7391 178.4554
a 223 216 18.5191
a 223 218 16.7666
a 223 164 14.6844
a 224 8967 12.0478
a 224 42 8.5716
a 224 183 2205.3685
a 225 208 6.8587
a 225 209 17.4996
a 225 184 2.8598
a 226 227 2.8505
a 226 9371 2.9225
a 227 11021 3.2969
a 227 226 2.8505
a 227 231 26.3326
a 228 229 5.0688
a 228 242 4.307
a 229 230 2.8051
a 229 237 14.7132
a 230 226 25.727
a 230 231 21.1226
a 230 229 2.8051
a 231 230 2.6964
a 231 234 20.3458
a 232 11676 2.8253
a 232 236 7.205
a 233 8117 15.9607
a 233 236 2.8469
a 234 233 10.494
a 234 235 95.1252
a 235 234 2.7245
a 235 237 2.9095
a 235 230 17.6429
a 236 235 619.8788
a 237 235 2.9095
a 237 232 5.6218
a 238 13247 0.4226
a 238 9497 11.6892
a 239 9121 13.8573
a 239 240 4.7318
a 239 2537 9.5645
a 240 241 9.3794
a 240 239 4.7318
a 241 9120 12.0074
a 241 240 9.3794
a 242 228 4.307
a 242 243 5.8543
a 243 249 5.089
a 243 10110 1.3313
a 244 246 3.3041
a 245 8119 8.9287
a 245 244 7.8149
a 246 247 5.8702
a 246 9292 220.178
a 247 11556 3.78
a 247 246 5.8702
a 247 248 3.3494
a 248 11676 5.7139
a 248 8125 6.8796
a 248 247 3.3494
a 249 8125 2.3551
a 249 9119 9.7531
a 250 187 2.2507
a 250 188 2.6921
a 250 200 11.9801
a 251 7336 2.7115
a 251 98 19.2046
a 251 11104 4.6037
a 252 1026 0.7186
a 252 679 3.4207
a 252 146 16.7047
a 253 1118 12.2767
a 253 1367 3.363
a 253 9068 350.117
a 254 720 5.4583
a 254 257 57.1058
a 254 13021 5.5613
a 255 262 20.0009
a 255 259 20.2082
a 255 569 6.57
a 256 361 5.4029
a 256 360 59.2689
a 257 715 20.8152
a 257 254 4.0608
a 257 701 2.4494
a 258 12136 0.7135
a 258 8933 2.5006
a 259 315 6.8126
a 259 299 6.4764
a 259 255 402.813
a 259 568 18.9914
a 260 9391 53.3685
a 260 9804 8.2289
a 260 9802 6.4526
a 260 9803 2.9362
a 261 11 18.0893
a 261 11866 16.6183
a 261 9798 4.2106
a 261 1139 18.8177
a 262 12479 17.339
a 262 255 20.0009
a 262 313 24.7698
a 263 482 5.0681
a 263 1260 23.7715
a 264 79 3.5755
a 264 275 42.1499
a 264 507 18.2981
a 265 266 7.8444
a 265 12821 113.698
a 266 269 10.1707
a 267 1662 1.057
a 267 1658 26.8805
a 268 10271 1.1542
a 268 9453 7.8448
a 269 11953 10.57
a 269 4654 10.2917
a 270 271 30.1029
a 270 7531 3.515
a 271 270 0.8611
a 271 522 3.3905
a 272 1285 38.4393
a 272 553 4.626
a 272 13035 7.1179
a 272 1281 7.7789
a 273 274 12.1025
a 273 2479 4.145
a 274 556 4.7045
a 274 1294 421.9427
a 274 2476 15.7838
a 274 273 12.1025
a 275 264 3.5143
a 275 7768 8.7646
a 275 7346 3.8009
a 276 8545 6.2633
a 276 3654 175.4763
a 276 13221 1.1362
a 277 3654 13.1825
a 277 8816 8.8589
a 277 3627 3.9931
a 278 3726 6.2856
a 278 12112 9.8129
a 279 10072 61.6422
a 279 1750 8.7286
a 279 1501 4.0791
a 280 13412 4.6547
a 280 1498 1.3147
a 280 281 14.8406
a 281 11966 16.5946
a 281 1754 9.1829
a 282 1495 1.4429
a 282 12775 74.2005
a 282 283 8.1461
a 283 3342 9.6307
a 283 3346 14.742
a 284 12207 3.8614
a 285 1694 9.4414
a 285 1618 10.2758
a 286 12293 8.0546
a 286 11309 0.7538
a 286 291 1.2895
a 287 9983 3.0262
a 287 288 8.2181
a 287 290 1.0224
a 288 13107 17.91
a 288 11163 28.8612
a 289 12447 2.1089
a 289 290 25.7119
a 290 1608 5.4353
a 290 287 11.2014
a 290 9078 72.2633
a 291 12555 0.4334
a 291 12556 0.8244
a 292 1215 2.1118
a 292 11409 29.4805
a 293 1201 7.2864
a 293 294 23.7312
a 293 1715 1.8266
a 294 1200 74.8305
a 294 8164 208.6425
a 295 1725 1.319
a 295 1517 7.8221
a 295 1527 14.7542
a 296 8679 6.8206
a 296 3002 11.1492
a 296 304 20.1996
a 296 8680 238.5047
a 297 298 8.1857
a 297 8681 90.6696
a 297 306 20.2601
a 297 3096 18.8554
a 298 299 8.473
a 298 297 235.6805
a 298 3007 18.769
a 298 305 20.2003
a 299 259 6.4764
a 299 298 8.473
a 299 569 20.1859
a 299 2988 57.3306
a 300 302 20.0844
a 300 8684 8.6256
a 300 91 5.6722
a 301 302 6.4778
a 301 575 20.0167
a 301 8684 831.3956
a 302 75 6.5268
a 302 577 995.3587
a 303 13329 4.6433
a 303 8681 20.2939
a 303 310 20.1528
a 304 21 277.9068
a 304 296 20.1996
a 304 311 20.129
a 305 308 20.1204
a 305 306 8.1173
a 305 298 20.2003
a 306 303 8.0352
a 306 309 20.1226
a 306 297 20.2601
a 307 570 25.1525
a 307 569 20.0693
a 307 262 6.6614
a 308 305 20.1204
a 308 591 7.2727
a 308 307 8.401
a 309 308 8.1734
a 309 306 20.1226
a 310 303 127.1513
a 310 309 8.3304
a 311 304 196.497
a 311 590 7.4002
a 311 13 6.4994
a 312 311 6.7226
a 312 21 20.083
a 313 9419 2.4365
a 313 314 20.0311
a 314 255 6.5426
a 314 313 537.6404
a 314 315 20.1082
a 315 92 6.6341
a 315 259 6.8126
a 315 314 20.1082
a 315 567 19.0303
a 316 7613 11.7266
a 316 80 3.4466
a 316 88 4.5792
a 317 318 9.3046
a 317 507 3.6691
a 317 500 3.7382
a 317 275 72.3876
a 318 317 9.3046
a 318 499 7.3649
a 319 320 198.7457
a 319 323 3.523
a 319 321 3.7994
a 320 328 19.8871
a 320 324 3.3696
a 320 322 3.6403
a 321 396 18.2448
a 321 497 4.271
a 321 319 3.7994
a 322 320 3.6403
a 322 102 4.3747
a 322 321 18.3355
a 323 325 3.5186
a 323 264 18.1706
a 323 319 3.523
a 324 326 4.7333
a 324 9732 3.7944
a 324 320 3.3696
a 325 7768 9.4522
a 325 323 3.5186
a 325 326 15.125
a 325 9731 1.9663
a 326 325 15.125
a 326 323 812.4528
a 327 322 276.8812
a 327 498 4.333
a 327 328 16.2247
a 328 329 3.4596
a 328 327 3.7778
a 329 330 3.5431
a 329 324 19.7856
a 330 331 4.2005
a 331 1138 12.6338
a 331 2799 22.3171
a 332 8414 0.6235
a 332 115 5.009
a 332 340 17.3412
a 333 334 4.8391
a 333 723 17.6513
a 334 335 5.0501
a 334 333 131.5548
a 334 337 15.0948
a 335 334 5.0501
a 335 7488 6.5426
a 336 337 5.2992
a 336 7834 6.5318
a 336 335 15.169
a 336 357 33.246
a 337 336 5.2992
a 337 338 4.9414
a 337 357 27.3902
a 338 333 15.9091
a 338 339 4.2422
a 338 337 4.9414
a 338 347 17.3873
a 339 348 17.3131
a 339 340 17.4395
a 339 338 4.2422
a 340 341 5.1134
a 340 349 17.3966
a 340 339 26.8516
a 340 332 17.3412
a 341 340 5.1134
a 341 350 17.2613
a 341 115 16.3159
a 341 342 4.0435
a 342 727 15.1481
a 342 351 17.2706
a 342 343 4.1674
a 342 341 4.0435
a 343 724 14.0875
a 343 344 216.6362
a 343 342 4.1674
a 343 352 17.2051
a 344 353 17.1576
a 344 345 4.9039
a 344 343 4.8017
a 344 725 12.9665
a 345 354 17.1216
a 345 726 11.9909
a 345 346 5.3352
a 345 344 4.9039
a 346 345 5.3352
a 346 726 15.5786
a 346 9959 0.7178
a 347 348 4.3682
a 347 2474 18.0079
a 347 338 17.3873
a 348 349 4.9183
a 348 347 4.3682
a 348 2473 200.7982
a 348 339 17.3131
a 349 350 5.0537
a 349 348 4.9183
a 349 12071 669.8403
a 350 349 5.0537
a 350 351 4.1882
a 350 341 17.2613
a 351 342 17.2706
a 351 352 4.1897
a 351 350 4.1882
a 352 351 18.1212
a 352 353 4.7297
a 352 343 17.2051
a 352 2471 17.6162
a 353 344 599.1919
a 353 354 5.0587
a 353 352 4.7297
a 354 398 17.3261
a 354 345 484.3127
a 354 355 5.3107
a 354 353 5.0587
a 355 394 17.1641
a 355 356 4.9471
a 355 354 17.7965
a 355 9959 16.1539
a 356 359 5.2949
a 356 355 4.9471
a 356 2465 16.8199
a 357 397 8.0417
a 357 337 27.3902
a 358 359 4.9032
a 358 256 5.2373
a 359 356 5.2949
a 359 358 4.9032
a 359 2464 16.673
a 360 7346 19.1952
a 360 359 14.4792
a 360 113 5.323
a 361 848 4.968
a 361 2469 80.6651
a 361 256 5.4029
a 362 374 16.3793
a 362 146 3.4358
a 362 363 10.1732
a 363 364 3.7951
a 363 677 16.619
a 363 362 4.1623
a 364 376 16.3894
a 364 363 3.7951
a 364 365 4.3661
a 365 364 4.3661
a 365 366 4.3193
a 365 673 16.583
a 366 10080 16.4016
a 366 365 4.3193
a 366 367 212.627
a 367 366 4.2473
a 367 368 4.4633
a 367 377 16.4074
a 368 367 43.7357
a 368 668 122.1085
a 368 369 4.2156
a 369 378 139.6773
a 369 368 4.2156
a 369 370 4.307
a 370 371 6.4397
a 370 658 16.4894
a 370 369 4.307
a 371 370 6.4397
a 371 380 919.0762
a 371 372 6.6766
a 372 373 8.2469
a 372 371 6.6766
a 372 393 16.4117
a 372 7771 16.2468
a 373 372 8.2469
a 373 681 292.8296
a 373 8960 109.4853
a 373 459 16.4477
a 374 375 4.1429
a 374 1042 3.469
a 374 388 17.1223
a 375 363 16.3843
a 375 376 31.6326
a 375 374 4.1429
a 376 10078 4.351
a 376 375 3.8326
a 376 390 17.1058
a 377 10079 4.41
a 377 10080 4.3618
a 377 382 17.0899
a 377 367 16.4074
a 378 379 4.3949
a 378 10079 4.2516
a 378 12200 17.0892
a 379 378 4.3949
a 379 370 16.4254
a 379 380 6.1906
a 380 9865 3.1507
a 380 1540 6.6103
a 380 379 6.1906
a 381 10079 17.123
a 381 382 4.4518
a 381 1099 3.9715
a 382 381 4.4518
a 382 392 23.5316
a 382 1041 8.3534
a 382 377 17.0899
a 383 384 4.068
a 383 6 4.3798
a 384 385 3.9427
a 384 389 16.9934
a 384 383 197.0862
a 385 384 3.9427
a 385 386 3.5402
a 386 385 3.5402
a 386 8578 9.1274
a 387 386 17.2296
a 387 388 3.505
a 387 1032 0.6667
a 388 389 36.9018
a 388 387 3.505
a 388 385 17.0734
a 389 375 63.2822
a 389 390 3.8707
a 389 388 4.122
a 390 383 16.9855
a 390 391 106.323
a 390 389 12.4845
a 391 392 4.2142
a 391 390 101.9155
a 391 10078 17.0402
a 392 382 4.2833
a 392 391 4.2142
a 392 19 12.6677
a 393 661 6.6622
a 393 459 8.2512
a 393 9871 281.2111
a 393 372 16.4117
a 394 355 17.1641
a 394 398 5.1329
a 394 2923 0.9194
a 395 7535 0.7711
a 395 2463 5.2826
a 396 509 18.342
a 396 79 3.803
a 396 81 4.2091
a 397 13076 0.3578
a 397 357 8.0417
a 397 7508 12.0082
a 398 354 17.3261
a 398 2466 195.2944
a 399 2757 2.9678
a 399 4260 14.7564
a 399 4023 4.7693
a 399 9382 10.9973
a 400 2757 1.1261
a 400 12546 1.7186
a 400 9719 4.2437
a 401 4042 2.2802
a 401 10910 0.4118
a 401 4092 13.837
a 402 3316 3.1363
a 402 3775 129.6814
a 402 3832 16.1251
a 403 12814 0.414
a 403 10154 61.684
a 403 12815 1.9267
a 404 5141 5.8457
a 404 5146 7.7357
a 404 7885 14.8982
a 404 5147 7.3735
a 405 13145 13.9766
a 405 5146 34.6062
a 405 11333 8.6011
a 406 5425 4.2782
a 406 5541 25.8768
a 407 5407 4.019
a 407 7802 0.7999
a 407 7567 3.6223
a 408 5495 1.5552
a 409 5421 5.7542
a 409 5495 6.2302
a 409 5415 6.989
a 410 6305 8.2598
a 410 5490 6.5873
a 410 6309 60.8287
a 411 7156 5.7722
a 411 7111 7.4117
a 411 6361 4.7462
a 412 2535 16.961
a 412 2540 5.1941
a 412 434 13.5871
a 413 429 40.0317
a 413 2555 4.7232
a 413 423 50.9604
a 413 427 17.5709
a 414 436 5.3914
a 414 437 4.7722
a 415 2541 4.6541
a 415 429 4.4194
a 415 433 11.2111
a 415 2569 13.284
a 416 430 4.5079
a 416 11022 2.9007
a 417 420 4.4237
a 417 2570 4.4856
a 417 430 9.283
a 418 428 4.8118
a 418 2551 13.2962
a 418 7335 15.8666
a 419 2817 527.7435
a 419 2545 14.9198
a 419 2550 9.0094
a 420 7335 5.0371
a 420 417 4.4237
a 420 414 219.1264
a 420 428 16.4045
a 421 416 4.6613
a 421 2557 445.8637
a 421 422 7.7774
a 422 8226 5.6873
a 422 432 13.1825
a 422 421 7.7774
a 423 428 15.5858
a 423 8228 4.3063
a 423 413 11.4185
a 424 3557 21.0749
a 424 426 5.3856
a 425 412 8.3088
a 426 10999 5.4706
a 426 9414 5.0746
a 427 413 17.5709
a 427 2556 7.5571
a 427 433 6.8328
a 428 418 4.8118
a 428 423 4.3949
a 428 2823 4.968
a 429 415 4.4194
a 429 413 4.5281
a 429 433 11.2781
a 429 8228 11.9376
a 430 416 21.4364
a 430 437 131.5829
a 431 2823 4.0133
a 431 2550 5.022
a 431 2542 16.547
a 432 2557 4.5331
a 432 3557 15.4807
a 432 422 13.1825
a 433 2540 4.5144
a 433 429 11.2781
a 433 427 6.8328
a 433 415 11.2111
a 434 2541 9.4039
a 434 9408 13.0514
a 434 412 13.5871
a 435 9414 63.4037
a 435 12415 15.8825
a 436 414 5.3914
a 436 12579 6.4721
a 436 7335 17.3405
a 437 8227 10.4868
a 437 414 4.7722
a 438 1534 8.4542
a 438 439 6.5916
a 438 13373 13.626
a 438 12373 14.4785
a 439 659 6.0775
a 439 442 16.452
a 439 438 6.5916
a 440 444 16.4592
a 440 659 4.4777
a 440 666 4.3301
a 441 654 4.1105
a 441 666 4.4021
a 441 17 16.4815
a 442 443 6.2446
a 442 12374 4.8751
a 442 660 17.0158
a 443 444 4.2847
a 443 442 6.2446
a 443 659 16.5218
a 444 445 4.4208
a 444 443 20.9793
a 444 664 17.0244
a 445 17 4.3798
a 445 444 4.4208
a 445 666 16.4434
a 446 447 4.248
a 446 17 10.8004
a 446 653 16.8646
a 447 446 4.248
a 447 448 4.549
a 448 449 145.7498
a 448 447 4.549
a 448 9874 16.9423
a 449 448 98.7019
a 449 1139 3.9218
a 450 9675 8.6566
a 450 451 10.8641
a 450 12367 3.0398
a 451 7439 7.717
a 451 450 10.8641
a 451 9873 12.6857
a 452 12424 99.2877
a 452 12425 3.1572
a 452 13617 8.91
a 453 12359 14.6671
a 453 454 67.0845
a 454 455 8.2858
a 454 457 16.8818
a 454 7439 16.7623
a 454 453 8.2476
a 455 456 36.3056
a 455 454 8.2858
a 455 458 16.9063
a 455 1535 16.8358
a 456 9872 4.1119
a 456 455 8.1331
a 456 459 16.925
a 456 682 16.8271
a 457 458 8.2771
a 457 1536 8.3016
a 457 680 153.4114
a 457 454 16.8818
a 458 459 332.7222
a 458 457 8.2771
a 458 11158 14.4223
a 458 455 16.9063
a 459 393 27.9239
a 459 458 339.1547
a 459 373 16.4477
a 459 456 16.925
a 460 13442 6.6031
a 460 20 8.6818
a 460 8521 34.6838
a 461 1538 14.1113
a 461 3200 8.6393
a 461 1537 8.3866
a 462 3542 14.652
a 462 10097 17.3254
a 462 8157 3.6158
a 463 125 32.719
a 463 12233 199.2134
a 463 10108 7.0956
a 464 133 5.3683
a 465 691 7.7134
a 465 141 15.233
a 466 3547 0.7711
a 466 9618 15.0264
a 467 468 8.7934
a 467 13361 10.3723
a 467 9603 7.9834
a 467 120 9.4327
a 468 9368 4.4309
a 468 11535 4.0853
a 468 467 236.0993
a 468 12829 8.8207
a 469 7347 0.882
a 469 133 375.9599
a 469 473 23.9299
a 469 476 30.5906
a 470 13609 10.4868
a 470 122 8.5601
a 470 12302 3.5287
a 471 12828 15.3029
a 471 7336 20.0016
a 471 9201 4.6663
a 472 12734 1.3651
a 472 473 4.8744
a 472 7336 4.4122
a 473 469 23.9299
a 473 472 283.735
a 473 474 5.9249
a 474 475 8.3614
a 474 473 310.6682
a 474 477 114.1759
a 475 9201 4.3711
a 475 474 8.3614
a 475 477 14.161
a 476 477 3.8362
a 476 469 6.7154
a 476 9202 15.2856
a 477 476 18.075
a 477 474 18.3398
a 477 475 14.161
a 478 10066 24.7428
a 478 1120 4.7426
a 479 7524 0.5285
a 479 484 6.1754
a 480 13071 0.5969
a 480 9377 6.359
a 480 484 12.4258
a 481 7713 0.738
a 481 7266 12.2069
a 482 12129 0.6523
a 482 13047 5.3597
a 483 13040 0.4723
a 483 488 3.8419
a 484 9448 0.4752
a 484 10307 3.5906
a 484 480 12.4258
a 485 7719 21.9266
a 485 12454 485.7764
a 485 12744 5.1559
a 486 13032 0.4349
a 487 10982 0.571
a 487 12566 13.675
a 488 2466 0.9029
a 488 7530 4.8874
a 489 12131 4.783
a 489 8930 4.6692
a 490 12409 7.5082
a 490 491 1.3356
a 491 7274 712.2957
a 492 7286 1.4378
a 492 491 8.7984
a 493 11407 4.6483
a 494 6890 30.9636
a 495 496 10.6358
a 495 746 10.0058
a 496 494 26.9784
a 497 321 207.8757
a 497 81 18.3254
a 497 102 18.3067
a 498 327 4.333
a 498 102 19.9116
a 498 2799 5.6462
a 499 83 2.9412
a 500 317 3.7382
a 500 506 6.053
a 500 318 28.187
a 501 90 3.9802
a 501 83 4.9745
a 502 506 11.5445
a 502 503 4.2422
a 503 502 4.2422
a 504 98 3.7872
a 504 501 21.2962
a 504 147 5.0724
a 505 513 3.726
a 505 11801 2.3976
a 505 502 47.1032
a 506 500 6.053
a 506 501 20.047
a 507 508 3.461
a 507 317 44.9548
a 507 499 15.6794
a 508 79 18.288
a 508 509 3.5719
a 508 507 88.7386
a 509 316 18.0979
a 509 508 3.5719
a 509 2454 19.5973
a 510 500 4.4568
a 510 1136 9.3679
a 511 510 6.1956
a 511 1136 6.1092
a 512 85 3.7519
a 512 514 3.713
a 513 515 3.8232
a 513 505 3.726
a 513 512 32.2517
a 514 512 3.713
a 514 515 27.4939
a 514 697 20.9426
a 514 89 3.6454
a 515 516 3.6446
a 515 513 3.8232
a 516 515 3.6446
a 516 4470 2.6064
a 517 4470 18.6257
a 517 89 4.086
a 517 2534 4.1616
a 518 4496 24.5088
a 518 9958 8.7494
a 519 505 5.1106
a 519 4496 10.8461
a 520 524 27.2197
a 520 2531 9.977
a 521 524 4.6361
a 521 1227 9.5774
a 522 271 3.3905
a 522 7384 3.1795
a 522 523 17.5471
a 523 1227 17.7494
a 523 271 29.3458
a 524 520 5.1876
a 524 521 4.6361
a 524 525 39.1052
a 525 527 4.6174
a 525 2529 5.549
a 526 521 108.9285
a 526 8077 4.7563
a 527 526 7.6817
a 527 533 6.9718
a 527 525 4.6174
a 527 7243 7.5679
a 528 553 4.3553
a 528 1280 3.9499
a 528 551 13.6296
a 529 1275 1.3442
a 529 528 7.8077
a 530 1275 1.6121
a 530 9489 13.549
a 530 7384 10.2118
a 531 532 427.4125
a 531 532 15.066
a 531 9489 5.7564
a 532 4379 87.372
a 532 531 7.9171
a 532 531 545.1273
a 533 534 4.5266
a 533 4379 3.6166
a 533 1274 144.7332
a 533 527 6.9718
a 534 535 4.2012
a 534 533 4.5266
a 535 534 4.2012
a 535 1238 4.3445
a 535 536 19.7158
a 536 537 3.6972
a 536 535 19.7158
a 536 12518 5.3777
a 537 536 3.6972
a 537 1231 21.1521
a 537 1230 11.3076
a 538 3134 21.2638
a 538 7535 8.0784
a 538 7534 3.5724
a 539 5394 13.9169
a 539 3151 13.6562
a 539 2475 8.3095
a 539 2851 15.4354
a 540 1316 4.459
a 540 1314 21.9324
a 540 11701 8.1547
a 541 11861 154.0638
a 541 8076 3.803
a 541 542 9.3485
a 541 1241 242.094
a 542 1245 32.1149
a 542 543 5.7442
a 542 541 9.3485
a 543 544 4.595
a 543 7166 13.5418
a 543 542 44.0326
a 544 9479 4.1494
a 544 543 4.595
a 544 545 18.9756
a 545 9479 13.8329
a 545 8907 864.0873
a 546 2003 4.1846
a 546 549 4.3502
a 546 1246 15.4973
a 547 8071 454.4778
a 547 7167 6.8846
a 547 1245 155.2303
a 547 2003 4.2811
a 548 7161 2.0995
a 548 9052 2.543
a 548 1242 6.6118
a 549 8081 6.755
a 549 546 4.3502
a 549 8971 15.2395
a 549 8907 11.6086
a 550 132 7.3678
a 550 8970 15.5102
a 551 562 53.9794
a 551 528 13.6296
a 551 559 4.1846
a 551 552 529.337
a 552 558 3.857
a 552 7542 9.0158
a 552 1292 3.8268
a 553 272 4.626
a 553 528 52.1134
a 553 12148 6.899
a 554 559 3.7555
a 554 2479 4.4928
a 554 555 21.7758
a 554 553 711.6463
a 555 554 4.2401
a 555 556 10.53
a 556 1289 140.0508
a 556 274 4.7045
a 556 555 10.53
a 556 557 8.5637
a 557 7244 5.7888
a 557 556 8.5637
a 557 7512 9.5249
a 558 1290 0.7862
a 558 552 3.857
a 558 559 14.9155
a 559 551 4.1846
a 559 554 3.7555
a 560 7546 87.3339
a 560 1292 4.6601
a 560 7553 111.8555
a 561 7553 4.3985
a 561 562 22.399
a 562 551 4.2516
a 562 561 9.6912
a 562 563 10.1038
a 562 564 6.5851
a 563 1280 0.5263
a 563 562 10.1038
a 563 1279 3.6994
a 564 565 3.6504
a 564 7551 130.4245
a 565 1274 5.5915
a 565 1239 4.1234
a 565 534 10.7474
a 566 567 6.6218
a 566 1141 9.5918
a 566 92 18.9756
a 566 3027 21.8909
a 567 315 19.0303
a 567 11231 24.9523
a 567 568 6.5923
a 567 566 6.6218
a 568 259 79.0393
a 568 3098 26.5018
a 568 2988 6.5974
a 568 567 6.5923
a 569 307 20.0693
a 569 299 20.1859
a 569 305 8.5702
a 570 597 3.9542
a 570 307 25.1525
a 570 580 100.8213
a 571 596 30.4716
a 571 591 167.2609
a 571 597 305.5115
a 572 1081 6.5664
a 572 591 8.1338
a 572 590 21.3156
a 573 1072 4.4323
a 573 1075 2.3659
a 573 8179 5.4857
a 574 8678 8.3664
a 574 3105 432.4091
a 574 3002 7.8379
a 575 312 9.2081
a 575 301 20.0167
a 576 2855 1.6481
a 576 2952 5.459
a 576 3317 17.4182
a 577 575 6.2899
a 577 3317 7.4218
a 578 1777 0.6646
a 578 74 24.871
a 578 2855 4.8758
a 579 596 40.3668
a 579 594 0.846
a 579 1081 11.0851
a 580 11004 13.9918
a 580 570 3.186
a 580 1098 7.6673
a 580 12479 8.6386
a 581 586 12.0406
a 581 582 7.1374
a 581 3031 4.657
a 582 2904 9.3103
a 582 583 11.2277
a 582 581 7.1374
a 582 587 20.9909
a 583 587 4.6426
a 583 2904 5.8975
a 583 584 5.8507
a 583 582 51.0268
a 584 585 7.061
a 584 583 5.8507
a 584 3053 13.1558
a 585 8915 17.1108
a 585 2986 4.541
a 585 584 7.061
a 586 581 12.0406
a 586 2904 5.899
a 586 3053 5.976
a 587 583 4.6426
a 587 582 20.9909
a 587 2423 20.9419
a 588 3008 5.2747
a 588 2952 1.669
a 588 589 704.8713
a 589 8677 7.4311
a 589 3317 7.1352
a 589 588 17.5896
a 590 311 7.4002
a 590 1080 6.5671
a 590 572 21.3156
a 590 8677 7.6651
a 591 308 7.2727
a 591 571 17.8114
a 591 572 8.1338
a 592 593 10.8835
a 592 594 6.9062
a 592 1072 9.2146
a 593 1081 7.614
a 593 1080 13.8103
a 593 592 10.8835
a 594 579 0.846
a 594 595 201.7162
a 594 592 6.9062
a 595 9804 8.6666
a 595 594 7.7076
a 595 1074 130.6267
a 596 571 3.1054
a 596 579 5.1142
a 596 9803 15.8184
a 597 570 80.7512
a 597 1098 7.7746
a 597 571 4.2386
a 598 1496 7.1496
a 598 617 6.8537
a 599 613 19.4422
a 599 617 13.0003
a 599 605 6.871
a 599 610 6.817
a 600 607 6.8666
a 600 601 10.6783
a 600 615 7.038
a 601 602 12.2911
a 601 600 104.3435
a 601 616 339.284
a 602 601 12.2911
a 602 12217 347.7709
a 602 2430 7.4642
a 602 743 9.8467
a 602 744 15.1524
a 603 1545 19.584
a 603 1562 6.9782
a 603 1544 4.05
a 604 605 14.274
a 604 618 4.7578
a 604 617 6.9602
a 605 13438 4.4957
a 605 604 14.274
a 605 599 6.871
a 605 8923 10.206
a 606 13438 14.8586
a 606 613 6.7882
a 606 607 14.9789
a 606 7644 18.0225
a 607 616 1.9591
a 607 600 6.8666
a 607 606 14.9789
a 608 618 6.948
a 608 1502 1.4234
a 608 598 10.1743
a 609 745 7.4938
a 609 8924 9.6869
a 609 611 8.2735
a 609 623 476.0118
a 610 8036 14.143
a 610 599 6.817
a 611 7642 5.503
a 611 740 15.3454
a 611 614 7.7681
a 611 609 28.6984
a 612 613 7.1942
a 612 3068 11.3285
a 612 2431 3.1572
a 612 3138 2.5517
a 613 599 19.4422
a 613 606 6.7882
a 613 612 7.1942
a 613 600 15.1265
a 614 626 7.0675
a 614 12728 5.2733
a 614 7644 7.0294
a 614 611 7.7681
a 615 1552 7.2605
a 615 600 7.038
a 615 2434 3.991
a 615 2430 20.1506
a 616 625 71.4797
a 616 607 1.9591
a 616 8100 8.7746
a 616 601 13.045
a 617 599 13.0003
a 617 604 6.9602
a 617 598 6.8537
a 618 608 6.948
a 618 604 24.277
a 618 7643 17.6522
a 618 627 15.0091
a 619 624 6.3194
a 619 1495 6.9581
a 619 627 37.0662
a 619 620 22.4762
a 620 3338 7.8106
a 620 1492 6.6852
a 621 13409 1.5163
a 622 745 282.5802
a 622 3338 8.8862
a 622 623 9.0662
a 622 8929 7.9985
a 623 609 16.0027
a 623 624 8.7559
a 623 622 9.0662
a 623 8926 6.8486
a 624 619 6.3194
a 624 623 8.7559
a 624 7432 4.9781
a 624 3338 16.3771
a 625 616 6.8033
a 625 12215 5.2344
a 625 742 9.5659
a 625 12488 7.1395
a 626 614 7.0675
a 626 12488 12.9247
a 626 741 9.4795
a 627 619 382.9675
a 627 618 63.5811
a 627 9945 10.9138
a 628 45 4.4273
a 628 637 2.7569
a 628 629 10.4314
a 629 648 13.3013
a 629 9800 4.2998
a 629 630 20.9714
a 630 636 2.9498
a 630 10 4.3279
a 630 631 18.9302
a 631 635 159.6126
a 631 9798 18.0094
a 631 11 4.1983
a 632 633 3.0204
a 632 1140 8.4434
a 632 11866 275.333
a 633 632 3.0204
a 633 634 16.7688
a 633 643 2.9686
a 634 9798 2.898
a 634 642 3.0924
a 634 635 17.9417
a 635 636 18.9605
a 635 631 10.4361
a 635 641 2.9268
a 636 648 20.9419
a 636 640 12.4744
a 636 630 2.9498
a 637 628 2.7569
a 637 638 3.0118
a 638 637 3.0118
a 638 8453 261.1844
a 639 640 266.9613
a 639 8453 1.0109
a 639 648 2.8591
a 640 641 18.9576
a 640 645 2.8555
a 640 636 2.8872
a 641 647 2.8094
a 641 642 202.4318
a 641 635 2.9268
a 642 634 3.0924
a 642 646 2.7079
a 642 643 16.3692
a 643 644 3.7836
a 643 633 2.9686
a 644 646 51.7074
a 644 9877 4.3704
a 644 643 3.7836
a 645 640 2.8555
a 645 639 21.9456
a 645 651 2.785
a 646 649 3.083
a 646 642 2.7079
a 646 647 18.0252
a 647 650 2.7907
a 647 641 2.8094
a 647 645 19.049
a 648 637 10.4674
a 648 629 2.9081
a 648 639 2.8591
a 649 646 3.083
a 649 9877 10.6675
a 649 1071 3.3163
a 650 1043 4.513
a 650 647 2.7907
a 650 649 18.0367
a 651 650 19.0411
a 651 645 2.785
a 652 669 4.248
a 652 673 4.3121
a 652 366 16.5643
a 653 18 4.181
a 653 674 18.0415
a 653 652 142.3702
a 654 446 16.4578
a 654 11658 3.4812
a 654 441 4.1105
a 655 654 16.5218
a 655 10 3.9744
a 655 9 15.485
a 656 670 53.2095
a 656 48 100.8709
a 657 660 6.1618
a 657 664 4.3884
a 657 443 16.9726
a 658 663 4.4503
a 658 661 6.3058
a 658 657 16.7702
a 659 440 4.4777
a 659 439 6.0775
a 659 50 16.4729
a 660 8669 2.0966
a 660 657 6.1618
a 660 661 16.7746
a 661 393 6.6622
a 661 658 6.3058
a 661 371 16.4628
a 662 9949 0.5263
a 662 8061 4.2415
a 662 439 16.5571
a 663 658 4.4503
a 663 668 4.2667
a 663 369 16.5089
a 664 663 16.7587
a 664 657 4.3884
a 664 667 4.2242
a 665 49 52.3128
a 665 9948 3.7678
a 665 440 16.4174
a 666 441 4.4021
a 666 49 16.429
a 666 440 4.3301
a 667 18 4.3913
a 667 445 16.8581
a 667 664 4.2242
a 668 663 4.2667
a 668 669 4.428
a 668 667 122.7912
a 669 668 4.428
a 669 652 4.248
a 669 367 16.5456
a 670 671 7.2223
a 670 672 19.9497
a 671 9 2.795
a 671 49 44.1199
a 672 656 13.4194
a 672 670 7.7429
a 673 652 4.3121
a 673 675 4.2667
a 673 674 16.8487
a 674 653 156.9477
a 674 447 16.9085
a 674 9874 40.4485
a 675 673 4.2667
a 675 677 19.3745
a 675 364 1089.0075
a 676 9874 3.8822
a 676 678 39.4474
a 676 449 782.8649
a 677 675 3.8671
a 677 679 4.1825
a 677 676 16.812
a 678 679 16.8098
a 678 676 4.1911
a 678 16 3.4308
a 679 677 4.1825
a 679 362 16.6356
a 679 252 3.4207
a 680 11107 9.6595
a 680 457 8.0064
a 680 1536 11.3047
a 681 11158 2.1427
a 681 11107 2.5488
a 681 373 8.0014
a 681 2453 344.7345
a 681 8960 10.517
a 682 9795 8.5104
a 682 1535 97.6036
a 682 456 67.4959
a 682 1534 16.4563
a 683 685 1.4573
a 683 7706 4.2782
a 684 9357 331.0412
a 684 7357 7.9906
a 685 8 2.6554
a 685 683 1.4573
a 685 7769 2.3652
a 686 4480 3.9377
a 686 105 4.8946
a 687 111 4.6534
a 687 689 4.1537
a 687 690 97.6282
a 688 116 3.8182
a 688 9350 31.2631
a 689 687 4.1537
a 689 3288 4.5886
a 690 689 19.5998
a 690 106 5.2294
a 691 7160 17.9618
a 691 465 7.7134
a 691 111 6.3864
a 692 11150 1.1405
a 692 11696 0.5904
a 693 11696 2.8519
a 693 11698 0.5407
a 693 694 18.2714
a 694 13022 3.7778
a 694 7160 3.8945
a 695 4386 0.6984
a 695 13020 1.1002
a 696 720 3.713
a 696 697 3.6007
a 696 512 255.3795
a 697 696 3.6007
a 697 721 4.325
a 698 100 16.1482
a 698 701 59.9721
a 699 698 16.6728
a 700 699 3.1241
a 701 698 0.7157
a 701 257 23.8866
a 701 2562 3.1313
a 702 700 11.9412
a 702 700 15.773
a 703 708 10.7122
a 703 704 6.025
a 704 705 13.752
a 704 84 5.0674
a 705 708 24.2986
a 705 704 13.752
a 705 704 9.9144
a 706 712 3.3458
a 706 714 3.6749
a 706 9429 8.6386
a 707 9429 9.3859
a 707 714 3.2162
a 707 100 3.6979
a 708 709 3.222
a 708 705 1.8662
a 708 703 10.7122
a 709 710 3.3602
a 709 708 39.0934
a 709 722 10.0022
a 710 709 3.3602
a 710 711 23.4214
a 710 712 3.3322
a 711 710 8.5147
a 711 722 3.7519
a 712 706 3.3458
a 712 713 5.3093
a 712 710 97.7518
a 713 712 5.3093
a 714 706 3.6749
a 714 78 14.1242
a 714 707 3.2162
a 715 251 3.9442
a 715 716 3.8174
a 716 718 13.037
a 716 719 4.0601
a 717 2534 9.5969
a 718 720 3.6187
a 718 98 4.2833
a 718 717 537.4459
a 719 254 12.5597
a 720 696 52.9751
a 720 254 5.4583
a 720 718 3.6187
a 720 719 10.8252
a 721 697 60.1334
a 721 717 3.6194
a 722 709 10.0022
a 722 703 3.4106
a 723 339 81.9119
a 723 333 4.7203
a 723 8414 4.3142
a 724 343 14.0875
a 724 727 4.3517
a 724 725 4.8427
a 725 726 5.1516
a 725 344 12.9665
a 725 724 4.8427
a 726 345 11.9909
a 726 346 15.5786
a 726 725 5.1516
a 727 342 15.1481
a 727 724 4.3517
a 727 115 280.3556
a 728 9701 1.2924
a 729 151 0.9583
a 729 10828 279.0173
a 730 11356 21.7994
a 730 10373 1.2226
a 731 10819 2.5063
a 731 9892 2.4487
a 732 8430 1.4414
a 732 1219 16.7558
a 733 8435 1.0138
a 733 732 9.4147
a 734 9067 4.2754
a 734 10752 6.0934
a 735 12408 0.882
a 735 10819 20.5213
a 736 9199 6.0199
a 736 1487 36.187
a 737 743 16.4281
a 737 1486 10.0613
a 737 1481 7.1978
a 738 4832 8.4247
a 738 8822 15.5938
a 739 745 8.159
a 739 8750 13.8247
a 740 611 15.3454
a 740 8176 4.4467
a 741 626 9.4795
a 741 740 7.8394
a 742 625 9.5659
a 742 11352 13.7428
a 743 737 1.2478
a 743 602 9.8467
a 743 8174 445.4268
a 744 8037 1.6639
a 744 602 173.3466
a 745 609 7.4938
a 745 622 16.7148
a 745 739 126.0612
a 746 121 2.3738
a 746 13611 4.6944
a 747 7508 0.9288
a 747 12834 0.2376
a 748 3018 4.0723
a 748 7533 15.2899
a 749 12464 14.751
a 750 13417 1138.8613
a 751 9372 22.6145
a 751 494 72.7697
a 752 112 14.9494
a 752 185 1.1153
a 752 189 6.2546
a 753 9348 1.2794
a 753 13083 388.3172
a 753 4778 21.3307
a 754 8379 2.0002
a 754 11950 2.021
a 755 756 10.8252
a 755 13277 8.1958
a 755 769 23.8918
a 756 757 9.9324
a 756 755 10.8252
a 756 769 23.0062
a 757 13285 20.4433
a 757 11041 12.8398
a 757 756 258.8578
a 758 13377 14.4043
a 758 11041 600.5688
a 758 773 19.3586
a 759 13275 9.6163
a 759 11210 9.2261
a 759 760 33.899
a 760 9857 6.4973
a 760 762 5.251
a 760 761 9.5522
a 760 759 33.899
a 761 764 30.6972
a 761 13275 40.6642
a 761 768 102.8074
a 761 760 37.2612
a 762 763 8.4816
a 762 760 17.0344
a 762 10811 36.1447
a 763 762 8.4816
a 763 772 5.737
a 763 10809 35.519
a 764 761 30.6972
a 764 10811 8.7862
a 764 771 8.5932
a 765 766 1.8756
a 765 13379 12.1853
a 765 8503 8.7091
a 766 11411 8.5421
a 766 13423 84.7932
a 766 765 1.8756
a 767 768 13.181
a 767 770 3.3898
a 767 771 13.5006
a 768 11041 11.2061
a 768 761 11.2529
a 768 769 10.2816
a 768 767 13.181
a 769 756 23.0062
a 769 755 23.8918
a 769 768 10.2816
a 770 13592 3.6698
a 770 771 2.3767
a 770 767 3.3898
a 771 770 2.3767
a 771 764 8.5932
a 771 767 133.7557
a 772 763 5.737
a 773 758 19.3586
a 774 13378 16.5319
a 774 11002 3.8095
a 774 8502 9.6142
a 775 776 5.3215
a 775 777 4.2271
a 776 775 5.3215
a 777 775 4.2271
a 777 7948 1.8122
a 778 11828 13.4611
a 778 779 0.941
a 778 7948 203.1716
a 779 12309 4.3461
a 779 13279 0.4406
a 779 778 3.0879
a 780 9859 6.7349
a 780 7503 3.4222
a 780 12308 4.3488
a 781 8500 6.2107
a 781 782 2.9506
a 781 7503 17.694
a 782 9858 8.6918
a 782 12439 7.0769
a 782 781 24.9859
a 783 8505 1.116
a 783 9860 17.6839
a 783 8508 1.0994
a 784 9814 3.9787
a 784 9358 210.4224
a 784 8505 43.272
a 785 8138 20.9726
a 785 8988 2.79
a 786 8138 0.5674
a 786 8043 55.5533
a 786 785 0.7258
a 787 8137 0.7762
a 787 8580 1.075
a 788 12235 7.2209
a 788 803 5.5332
a 788 789 9.5717
a 789 795 14.8241
a 789 790 51.6381
a 789 788 260.2515
a 790 791 62.9855
a 790 795 90.6728
a 790 789 12.785
a 791 790 6.7817
a 791 11821 165.1787
a 791 801 8.1878
a 792 11818 1.2485
a 792 801 36.4709
a 793 794 21.4668
a 793 794 10.4148
a 793 812 17.8157
a 794 793 21.4668
a 794 793 10.4148
a 794 11819 3.1248
a 795 796 4.8845
a 795 789 14.8241
a 795 790 9.2938
a 796 795 50.8408
a 797 798 11.2536
a 797 11821 5.3791
a 797 800 7.0063
a 798 11379 5.4706
a 798 799 18.4428
a 798 797 11.2536
a 799 800 5.2675
a 799 798 82.332
a 799 802 113.7088
a 800 11379 4.7275
a 800 801 10.6603
a 800 799 5.2675
a 800 797 7.0063
a 801 800 36.8341
a 801 792 36.4709
a 801 791 8.1878
a 802 799 10.8086
a 803 803 3.5366
a 803 788 5.5332
a 804 807 70.3504
a 804 814 37.0196
a 804 829 28.2161
a 805 11816 1.4004
a 805 11817 1.453
a 805 11815 7.3109
a 806 810 5.9695
a 806 11817 26.5306
a 806 809 5.9062
a 807 11815 1.489
a 807 808 1.5235
a 807 804 22.5396
a 808 11815 1.6625
a 808 809 14.364
a 809 806 49.0155
a 809 808 14.364
a 809 9985 2.8685
a 810 806 5.9695
a 810 829 12.9485
a 810 812 5.6455
a 811 818 36.8549
a 811 812 13.3229
a 811 817 9.0972
a 812 810 287.373
a 812 811 13.3229
a 812 818 9.8582
a 812 793 17.8157
a 813 814 13.5785
a 814 827 10.3687
a 814 813 917.7726
a 814 804 5.4072
a 815 7014 15.8266
a 816 11380 10.597
a 816 11299 9.2506
a 816 12730 1.111
a 817 4817 3.0089
a 817 811 9.0972
a 817 11380 9.5494
a 818 811 9.5501
a 818 812 9.8582
a 818 4815 27.9108
a 818 840 31.1099
a 819 8019 4.4662
a 819 820 4.1299
a 819 3568 18.5911
a 820 821 104.2735
a 820 819 4.1299
a 821 820 19.3126
a 822 9579 3.9088
a 822 13276 30.1126
a 823 824 15.5491
a 823 11380 22.3776
a 823 2301 2.0801
a 824 823 15.5491
a 825 2304 12.1298
a 825 2305 8.7206
a 826 11232 949.8586
a 826 2303 3.7922
a 826 2304 13.6411
a 827 835 229.6411
a 827 831 5.0904
a 827 12034 2.0131
a 827 814 10.3687
a 828 833 16.3692
a 828 4810 11.2198
a 828 831 4.7628
a 829 830 8.8366
a 829 810 12.9485
a 829 804 131.2198
a 830 829 163.9811
a 831 827 115.9073
a 831 832 23.7082
a 831 828 4.7628
a 832 4813 4.1616
a 832 831 23.7082
a 832 833 4.6555
a 833 828 16.3692
a 833 4814 5.3381
a 833 832 4.6555
a 834 4810 4.9442
a 834 11739 18.3874
a 834 838 16.4599
a 834 837 5.0335
a 835 7014 19.2074
a 835 827 4.8586
a 835 836 4.8096
a 836 835 4.8096
a 836 4811 4.9118
a 836 837 10.8173
a 837 834 5.0335
a 837 836 39.7767
a 837 839 16.2648
a 838 4814 4.6634
a 838 834 16.4599
a 838 4815 86.0887
a 839 4809 9.6581
a 839 4811 4.703
a 839 837 16.2648
a 840 4816 51.0581
a 840 11484 72.4861
a 840 818 27.7922
a 841 11484 9.9151
a 842 845 5.0983
a 842 8045 4.4626
a 842 844 7.2677
a 843 845 1.723
a 844 8044 6.6946
a 844 842 7.2677
a 844 845 10.3169
a 845 843 1.723
a 845 842 265.9451
a 845 844 10.3169
a 846 847 11.0167
a 846 4817 7.4729
a 846 4816 12.8995
a 847 8045 4.3423
a 847 4817 6.7313
a 847 846 11.0167
a 848 361 172.3145
a 848 849 5.315
a 849 2467 18.1289
a 849 848 21.4995
a 849 850 5.4029
a 850 2463 17.1986
a 850 849 5.4029
a 850 851 5.6095
a 851 395 16.848
a 851 850 5.6095
a 852 10006 3.8909
a 853 8515 6.071
a 854 855 7.2353
a 855 9443 10.6682
a 856 10803 7.4174
a 857 9667 19.8108
a 857 13415 0.1375
a 858 2106 7.4282
a 858 891 9.9554
a 858 7044 3.6576
a 859 10990 0.9266
a 859 8349 7.5449
a 860 2632 22.7297
a 860 12600 3.9449
a 861 2186 5.8795
a 861 12067 9.571
a 862 39 1.0973
a 862 7568 30.5546
a 863 2189 3.8779
a 863 9670 10.8634
a 864 2195 5.7629
a 864 2620 10.0246
a 865 868 0.9353
a 865 2747 5.2171
a 865 3736 581.0385
a 866 7630 1.1678
a 866 2760 2.2126
a 867 866 1.0404
a 867 7938 1.9469
a 868 7404 1.0469
a 868 865 0.9353
a 869 7401 3.1514
a 869 9783 16.799
a 870 7211 3.5899
a 871 875 3.6828
a 871 12094 5.0062
a 871 872 17.5457
a 872 2186 3.8822
a 872 874 5.8313
a 872 871 17.5457
a 873 9658 3.965
a 873 874 11.3364
a 873 9662 8.375
a 874 2186 9.0346
a 874 873 11.3364
a 874 872 5.8313
a 875 871 3.6828
a 875 876 364.2348
a 875 880 20.9268
a 876 875 3.8426
a 876 7036 3.6547
a 876 9658 25.7918
a 877 881 3.618
a 877 880 3.9024
a 877 882 20.965
a 878 9652 3.587
a 878 881 3.8088
a 878 883 20.9232
a 879 11349 16.6313
a 879 885 3.9211
a 880 2776 3.8808
a 880 877 3.9024
a 880 2629 3.7505
a 880 875 72.2571
a 881 878 3.8088
a 881 877 3.618
a 882 875 3.8549
a 882 877 20.965
a 883 884 3.8592
a 884 882 33.1862
a 884 881 20.9376
a 885 2104 3.6814
a 885 13404 11.1161
a 886 889 3.6965
a 886 2108 5.1458
a 886 11109 8.023
a 886 7031 41.4743
a 887 2631 8.7055
a 887 2776 5.9918
a 887 888 41.2191
a 888 887 7.6997
a 888 890 4.0464
a 888 891 3.6727
a 888 7041 80.5032
a 889 886 3.6965
a 889 892 3.703
a 889 7041 9.6984
a 890 888 42.2591
a 890 9808 10.4198
a 890 9293 9.1541
a 891 888 3.6727
a 891 858 9.9554
a 891 2776 4.0349
a 892 893 4.3589
a 892 889 3.703
a 892 8828 25.9354
a 892 7017 13.1861
a 893 892 117.5697
a 893 2102 5.4094
a 893 2103 9.1274
a 894 9863 124.1214
a 895 13153 1.0094
a 895 9619 9.8885
a 895 9035 116.5184
a 896 9729 12.5014
a 896 2049 5.3525
a 896 11122 22.4647
a 896 2045 4.6728
a 897 2046 6.3547
a 897 7261 12.3545
a 897 4005 31.4582
a 898 11882 0.1742
a 899 907 8.645
a 899 902 3.6209
a 899 11882 6.8976
a 900 9648 8.3513
a 900 905 8.0417
a 900 906 23.6657
a 901 10001 1.0634
a 901 894 7.9265
a 901 8450 9.9418
a 902 908 4.279
a 902 10293 19.7532
a 902 899 3.6209
a 903 906 8.3095
a 903 9953 11.4386
a 903 10293 8.5802
a 904 7232 4.6433
a 904 905 13.0147
a 904 9953 14.9256
a 905 900 8.0417
a 905 7231 35.5555
a 905 904 13.0147
a 906 903 8.3095
a 906 900 23.6657
a 906 9646 7.7594
a 907 899 8.645
a 907 9648 16.8538
a 907 9646 13.369
a 908 9709 12.0204
a 908 10294 21.1255
a 908 902 4.279
a 909 910 6.5074
a 909 3206 12.1399
a 910 911 19.8979
a 910 7832 6.7349
a 911 913 5.526
a 911 914 8.8049
a 912 10076 19.7804
a 912 915 31.8763
a 913 911 5.526
a 913 10076 4.8074
a 913 7832 9.72
a 914 911 8.8049
a 915 909 19.9397
a 915 912 7.3994
a 915 10077 7.1669
a 916 2072 15.4843
a 916 917 9.2606
a 916 13153 13.7326
a 917 2071 14.2978
a 917 918 251.6756
a 917 916 46.2298
a 918 2070 3.0434
a 918 2069 9.797
a 918 919 15.1956
a 918 917 6.5117
a 919 938 4.693
a 919 922 10.9814
a 919 2069 13.6562
a 919 918 15.1956
a 920 7855 8.437
a 920 962 2.561
a 920 3158 8.9237
a 920 2022 20.8778
a 921 2071 7.069
a 921 2072 9.5674
a 921 2066 9.8194
a 921 8454 8.7696
a 922 937 3.0031
a 922 923 4.0385
a 922 8168 3.703
a 922 919 10.9814
a 923 922 4.0385
a 924 3553 4.1609
a 924 947 4.4186
a 924 953 10.8151
a 924 954 14.935
a 925 3551 6.2906
a 925 926 10.8173
a 925 7263 12.4891
a 926 11214 6.5246
a 926 3129 1.1059
a 926 925 10.8173
a 927 3550 5.1041
a 927 11214 6.5023
a 927 3535 167.8404
a 927 3567 10.8151
a 928 936 3.0161
a 928 2773 13.6965
a 928 939 10.7194
a 928 941 6.894
a 929 936 3.294
a 929 8172 3.4934
a 929 8171 3.5359
a 929 930 48.8295
a 930 929 5.1883
a 931 932 5.4252
a 932 934 3.2321
a 932 931 5.4252
a 932 8448 3.5582
a 932 8172 10.9256
a 933 951 4.3258
a 933 943 3.2666
a 933 949 6.894
a 933 950 3.654
a 934 936 6.9026
a 934 935 6.5203
a 934 941 3.0082
a 934 932 3.2321
a 935 934 27.2578
a 936 929 3.294
a 936 928 3.0161
a 936 937 10.6884
a 936 934 6.9026
a 937 939 3.2357
a 937 922 3.0031
a 937 936 10.6884
a 937 938 12.0758
a 938 940 3.3941
a 938 937 12.0758
a 938 919 4.693
a 939 945 3.2818
a 939 937 31.735
a 939 928 10.7194
a 939 940 12.9672
a 940 939 12.9672
a 940 938 26.9559
a 940 10292 0.9864
a 941 942 52.5787
a 941 943 3.2515
a 941 934 3.0082
a 941 928 6.894
a 942 941 6.169
a 943 2773 6.894
a 943 944 5.5634
a 943 933 3.2666
a 943 941 3.2515
a 944 943 5.5634
a 945 947 3.2126
a 945 939 3.2818
a 945 946 13.505
a 945 2773 10.7158
a 946 945 13.505
a 946 10292 2.2788
a 946 948 104.0369
a 947 924 4.4186
a 947 945 3.2126
a 947 948 13.9788
a 947 949 10.8151
a 948 946 3.3106
a 948 954 5.2546
a 948 947 13.9788
a 948 2067 16.6162
a 949 2773 3.2551
a 949 953 4.3618
a 949 947 284.904
a 949 933 6.894
a 950 933 3.654
a 951 953 6.894
a 951 952 10.9332
a 951 933 104.072
a 952 951 134.963
a 953 949 4.3618
a 953 3550 4.0788
a 953 924 10.8151
a 953 951 6.894
a 954 955 10.1124
a 954 948 5.2546
a 954 958 3.5928
a 954 924 14.935
a 955 954 10.1124
a 955 9729 4.7002
a 955 956 10.3687
a 955 2066 13.873
a 956 957 7.83
a 956 955 10.3687
a 956 7263 10.3183
a 957 956 7.83
a 957 958 144.3455
a 957 3567 13.6663
a 958 954 3.5928
a 958 957 2.8937
a 958 3553 14.1602
a 959 9035 3.451
a 959 964 3.5748
a 959 974 6.624
a 959 9619 9.283
a 960 961 3.5201
a 960 1014 3.7087
a 960 1019 147.4357
a 961 960 3.5201
a 961 963 3.5942
a 961 1020 3.4265
a 962 1017 5.1271
a 962 961 88.7739
a 963 9036 3.7174
a 963 1015 50.2516
a 963 961 3.5942
a 964 959 102.2045
a 964 975 163.9286
a 964 11889 3.4027
a 965 966 6.9804
a 965 9035 3.5546
a 965 994 3.2767
a 965 1010 3.227
a 966 983 22.1479
a 966 965 6.9804
a 966 1009 3.1889
a 966 1001 233.4078
a 967 1005 6.8155
a 967 968 6.259
a 967 1003 4.4964
a 968 991 4.5007
a 968 972 9.9986
a 968 11880 0.1598
a 968 967 6.259
a 969 992 103.348
a 969 991 2.8534
a 969 989 11.0426
a 969 993 10.0922
a 970 1006 4.1364
a 970 992 3.5165
a 970 997 4.811
a 970 976 14.153
a 971 973 3.5554
a 971 1022 3.5258
a 971 1010 3.3372
a 971 1013 4.1652
a 972 1005 1.5653
a 972 968 9.9986
a 972 986 10.5142
a 972 1016 11.7713
a 973 971 3.5554
a 973 9035 6.5851
a 973 974 3.4416
a 973 1020 6.6622
a 974 1019 5.7744
a 974 959 83.6283
a 974 975 3.5827
a 974 973 3.4416
a 975 1018 139.9206
a 975 964 6.5779
a 975 12349 7.0747
a 975 974 3.5827
a 976 990 2.9556
a 976 970 14.153
a 976 11888 932.7889
a 977 997 4.955
a 977 982 36.7108
a 977 981 9.8475
a 977 978 8.8531
a 978 1007 3.3041
a 978 995 3.312
a 978 977 8.8531
a 979 8163 4.3855
a 979 11888 0.8827
a 979 980 3.5143
a 980 981 4.9356
a 980 979 3.5143
a 980 1008 10.9879
a 981 977 3.6511
a 981 980 133.8741
a 981 1007 9.7013
a 981 1006 6.9775
a 982 983 3.4855
a 982 977 3.6972
a 982 996 6.0286
a 982 995 7.902
a 983 966 3.33
a 983 982 3.4855
a 983 994 7.2886
a 983 993 6.7543
a 984 1022 3.4538
a 984 1000 3.6886
a 984 1009 252.445
a 984 985 4.2466
a 985 1012 3.6497
a 985 1011 1.1714
a 985 984 4.2466
a 986 972 10.5142
a 986 1016 374.907
a 986 1021 15.3828
a 987 988 2.795
a 987 11880 13.6498
a 987 11880 18.9778
a 988 989 2.9606
a 988 987 96.2164
a 988 991 248.9852
a 989 990 3.1025
a 989 969 11.0426
a 989 988 2.9606
a 990 976 2.9556
a 990 989 3.1025
a 990 992 12.6022
a 991 969 2.8534
a 991 968 4.5007
a 991 988 12.3941
a 992 970 3.5165
a 992 969 3.4884
a 992 990 12.6022
a 993 983 6.7543
a 993 969 10.0922
a 993 998 4.361
a 993 996 3.2321
a 994 983 7.2886
a 994 995 3.5878
a 994 965 3.2767
a 995 978 3.312
a 995 994 3.5878
a 995 982 7.902
a 996 982 6.0286
a 996 993 3.2321
a 996 997 3.3055
a 997 977 15.8353
a 997 970 4.811
a 997 996 3.3055
a 998 1003 3.3926
a 998 1001 3.5287
a 998 999 6.5369
a 998 993 4.361
a 999 1000 107.4993
a 999 1004 118.5382
a 999 998 6.5369
a 999 12017 2.2846
a 1000 984 3.6886
a 1000 999 3.4186
a 1000 1002 4.0262
a 1000 1001 57.6062
a 1001 998 3.5287
a 1001 966 3.5784
a 1001 1000 6.5383
a 1002 1000 4.0262
a 1003 1004 6.5369
a 1003 998 3.3926
a 1003 967 4.4964
a 1004 999 3.3926
a 1004 1005 21.5469
a 1004 1003 6.5369
a 1004 9034 1064.9349
a 1005 1004 3.0593
a 1005 972 1.5653
a 1005 967 6.8155
a 1006 11888 5.8687
a 1006 970 4.1364
a 1006 981 6.9775
a 1007 1008 44.2188
a 1007 978 3.3041
a 1007 981 9.7013
a 1008 1007 5.1228
a 1008 980 10.9879
a 1008 8665 2.3429
a 1009 1010 6.9804
a 1009 984 3.3487
a 1009 966 3.1889
a 1010 1009 6.9804
a 1010 965 25.4973
a 1010 971 3.3372
a 1011 985 1.1714
a 1012 1013 3.3833
a 1012 985 3.6497
a 1012 1022 4.2278
a 1012 9034 3.672
a 1013 1012 14.847
a 1013 971 4.1652
a 1013 9036 3.1219
a 1014 960 3.7087
a 1014 7855 103.6486
a 1014 1018 3.4891
a 1014 7297 9.7673
a 1015 1017 6.5016
a 1015 1021 1.4177
a 1015 963 1.6805
a 1016 986 5.4886
a 1016 8161 109.8392
a 1016 972 11.7713
a 1017 1015 6.5016
a 1017 962 23.0965
a 1017 11195 9.581
a 1018 1019 3.713
a 1018 1014 3.4891
a 1018 975 49.087
a 1018 7854 4.4093
a 1019 1020 11.378
a 1019 1018 35.7401
a 1019 960 3.505
a 1019 974 5.7744
a 1020 9036 3.6115
a 1020 1019 3.5453
a 1020 973 165.3196
a 1020 961 3.4265
a 1021 9034 4.0032
a 1021 1015 1.4177
a 1021 986 15.3828
a 1022 971 3.5258
a 1022 984 108.1806
a 1022 1012 4.2278
a 1023 1024 16.3253
a 1023 8053 5.081
a 1024 1026 4.2149
a 1024 9744 3.9334
a 1025 8974 3.9269
a 1025 146 0.769
a 1025 7693 5.701
a 1026 252 0.7186
a 1026 1024 4.2149
a 1026 11937 5.562
a 1027 1030 121.4933
a 1027 8057 0.7834
a 1028 1042 0.7769
a 1028 7650 173.2062
a 1028 1025 16.3778
a 1029 1031 106.9582
a 1029 8049 7.7724
a 1029 1033 65.3836
a 1030 8974 4.032
a 1030 1027 47.2652
a 1031 1029 4.4482
a 1031 9886 16.8185
a 1031 7650 8.0143
a 1031 1027 16.4808
a 1032 9886 12.0845
a 1032 387 0.6667
a 1032 1028 17.0618
a 1033 3022 3.8232
a 1033 7690 13.0147
a 1033 9886 4.4258
a 1033 1029 278.1326
a 1034 3132 2.7166
a 1034 1035 6.8796
a 1034 8054 4.0298
a 1034 9022 7.4722
a 1035 1034 284.328
a 1035 9743 8.7098
a 1035 7560 9.0835
a 1036 1037 7.1201
a 1036 8058 37.8692
a 1037 8060 37.0851
a 1037 1035 12.6382
a 1037 9743 16.0056
a 1037 1036 7.1201
a 1038 8060 10.0318
a 1038 8055 36.8778
a 1038 8058 5.9947
a 1039 1040 9.4313
a 1039 7863 15.0502
a 1040 12451 0.5609
a 1040 4 23.0566
a 1040 10025 6.7586
a 1041 19 6.1488
a 1041 1099 11.3954
a 1041 382 8.3534
a 1042 1028 0.7769
a 1042 387 17.0554
a 1042 374 3.469
a 1043 650 4.513
a 1043 7574 2.0707
a 1043 1044 5.7499
a 1043 8453 45.4658
a 1044 1048 124.6726
a 1044 1043 5.7499
a 1044 1047 11.5675
a 1045 1057 6.5462
a 1045 1059 561.1278
a 1045 1046 9.8813
a 1046 11190 2.2356
a 1046 1045 9.8813
a 1046 1059 6.3864
a 1047 1052 8.5291
a 1047 1044 11.5675
a 1048 1044 1.8626
a 1048 9801 6.3367
a 1048 1049 66.3665
a 1049 9793 6.6247
a 1049 1051 4.6174
a 1049 1050 22.5749
a 1050 3067 4.6591
a 1050 1070 6.4541
a 1050 3145 20.8022
a 1051 1049 13.4566
a 1051 1053 4.6778
a 1051 1047 80.3591
a 1052 1054 9.1339
a 1052 1047 8.5291
a 1052 1053 16.1928
a 1053 1051 4.6778
a 1053 1055 5.2142
a 1053 1052 16.1928
a 1053 1066 102.086
a 1054 1057 6.2806
a 1054 1052 9.1339
a 1054 1055 12.0463
a 1055 1053 5.2142
a 1055 1058 5.3683
a 1055 1056 22.7736
a 1056 1063 4.0025
a 1056 1065 5.3914
a 1056 1066 45.6182
a 1057 1045 6.5462
a 1057 1054 6.2806
a 1058 1057 9.8885
a 1058 1055 5.3683
a 1058 1059 5.2762
a 1059 1058 5.2762
a 1059 1061 6.7946
a 1059 1045 22.7243
a 1059 1046 6.3864
a 1060 1061 5.8111
a 1060 12169 7.2482
a 1060 1062 4.7556
a 1061 1059 6.7946
a 1061 1062 3.3926
a 1061 1060 5.8111
a 1062 1061 3.3926
a 1062 12891 0.419
a 1062 1060 4.7556
a 1063 1056 4.0025
a 1063 1065 5.5526
a 1063 12169 3.078
a 1063 1069 6.048
a 1064 1067 6.2194
a 1064 1066 14.598
a 1065 1064 9.3802
a 1066 3067 4.3992
a 1066 1056 5.8363
a 1066 1064 14.598
a 1066 1053 22.4892
a 1067 2932 33.4869
a 1067 7265 2.2601
a 1068 3145 6.7493
a 1068 1070 21.0737
a 1068 2436 5.9839
a 1068 2976 12.1406
a 1069 1063 6.048
a 1069 7315 41.355
a 1070 8973 11.1449
a 1070 2884 12.1702
a 1070 1068 21.0737
a 1070 1050 6.4541
a 1071 9055 405.5044
a 1071 649 3.3163
a 1071 7575 3.5244
a 1072 1074 7.8782
a 1072 573 4.4323
a 1072 592 9.2146
a 1073 2926 20.708
a 1073 1074 6.3439
a 1073 1076 7.2785
a 1074 1072 89.9038
a 1074 1073 6.3439
a 1074 595 15.6204
a 1075 573 100.0013
a 1075 1076 12.3646
a 1075 11938 5.2445
a 1076 11869 16.8242
a 1076 1075 12.3646
a 1076 1073 7.2785
a 1076 1078 7.0402
a 1077 11869 0.2419
a 1077 2901 7.0524
a 1077 2858 1000.4898
a 1077 3013 6.4577
a 1078 3008 12.1738
a 1078 1076 7.0402
a 1078 2953 10.5638
a 1078 2901 17.1504
a 1079 9804 13.0702
a 1079 2858 12.2083
a 1079 11870 9.1303
a 1079 2926 99.9963
a 1080 8179 5.4281
a 1080 590 6.5671
a 1080 593 13.8103
a 1081 593 7.614
a 1081 572 101.6945
a 1081 579 99.0553
a 1082 12480 25.4894
a 1082 9419 4.0817
a 1082 9805 7.087
a 1083 12480 0.3319
a 1083 9419 18.8806
a 1084 1086 12.9067
a 1084 1087 7.3879
a 1085 8644 0.396
a 1085 11070 11.2529
a 1085 1084 13.5533
a 1086 1088 57.9751
a 1086 1091 59.2233
a 1087 1090 30.4661
a 1088 1087 12.7951
a 1088 1086 7.3001
a 1088 1089 7.5658
a 1089 7560 4.2502
a 1089 1088 7.5658
a 1090 1089 12.0528
a 1090 7560 17.6954
a 1091 1092 24.4195
a 1091 1086 2.1348
a 1091 93 14.4914
a 1092 1091 24.4195
a 1092 93 38.1209
a 1092 22 4.8802
a 1093 3329 0.4406
a 1093 9687 15.5678
a 1094 97 178.1072
a 1094 1567 6.9667
a 1095 1094 20.3306
a 1095 94 12.6504
a 1096 97 14.5303
a 1096 1571 18.4846
a 1097 1096 15.431
a 1097 94 150.1426
a 1097 3318 203.1514
a 1098 597 7.7746
a 1098 580 7.6673
a 1098 9803 7.7616
a 1099 1041 11.3954
a 1099 12200 0.3053
a 1099 381 3.9715
a 1099 1541 8.6947
a 1100 1579 10.1005
a 1100 1642 21.4942
a 1100 1639 5.5721
a 1101 2777 11.8699
a 1101 11587 7.0999
a 1102 8420 0.9302
a 1102 8512 1.9145
a 1103 11288 0.6912
a 1103 13097 4.6867
a 1104 1146 16.3109
a 1104 1179 3.7181
a 1104 1149 3.695
a 1104 1147 8.4046
a 1105 1193 10.6855
a 1105 1466 5.4756
a 1105 1516 5.7182
a 1105 8094 5.1055
a 1106 1485 5.4108
a 1106 12155 1.5667
a 1106 1427 4.1587
a 1106 2462 6.9912
a 1107 1206 5.292
a 1107 1386 7.83
a 1107 1423 23.1518
a 1107 1421 5.2546
a 1108 1380 0.9238
a 1108 8369 2.9988
a 1109 8369 8.095
a 1109 2459 5.1055
a 1109 1333 11.8116
a 1110 1464 22.9436
a 1110 1514 2.1751
a 1110 1193 11.6971
a 1110 1114 12.1442
a 1111 1405 17.4262
a 1111 1436 6.0674
a 1111 1207 318.1197
a 1111 1439 20.3213
a 1112 11035 5.7766
a 1112 1437 92.2326
a 1112 1200 7.8293
a 1112 1439 16.5089
a 1113 1342 11.4552
a 1113 1341 11.6518
a 1113 1354 141.2463
a 1113 1338 3.3833
a 1114 1463 5.3676
a 1114 1504 2.219
a 1114 1110 12.1442
a 1114 1116 12.181
a 1115 1483 7.025
a 1115 13472 6.0782
a 1115 1210 12.0521
a 1116 2456 5.3791
a 1116 1114 12.181
a 1116 1786 63.13
a 1116 1511 8.1584
a 1117 1482 319.3895
a 1117 1790 12.132
a 1117 3179 7.0373
a 1117 13472 5.9825
a 1118 1461 5.7463
a 1118 253 12.2767
a 1118 1779 183.9631
a 1118 1375 1.6812
a 1119 9354 5.5678
a 1119 1186 5.4065
a 1119 1392 14.0652
a 1119 1383 13.963
a 1120 2436 6.5455
a 1121 1122 10.4112
a 1121 1135 4.549
a 1121 1131 3.5352
a 1122 1121 10.4112
a 1122 1125 1.7604
a 1122 10284 3.631
a 1123 1124 10.0606
a 1123 1131 27.3149
a 1123 1127 5.6909
a 1124 1126 2.0902
a 1124 1123 10.0606
a 1124 1125 83.9898
a 1125 1122 1.7604
a 1125 1132 13.6008
a 1125 1124 2.1758
a 1126 1124 2.0902
a 1126 1127 289.7891
a 1126 1133 16.3303
a 1127 2960 26.2812
a 1127 1126 5.9278
a 1127 2998 336.9801
a 1127 1123 5.6909
a 1128 10063 0.3751
a 1128 3093 36.0483
a 1128 1134 9.4745
a 1129 1134 85.8716
a 1129 3093 5.8954
a 1130 13075 91.8535
a 1130 1131 5.8529
a 1131 1121 3.5352
a 1131 1123 3.2796
a 1131 1130 373.424
a 1132 1125 13.6008
a 1132 1133 66.0339
a 1132 3048 4.8737
a 1133 1126 16.3303
a 1133 2998 23.2135
a 1133 1132 9.6156
a 1134 1130 6.6096
a 1134 1128 57.4821
a 1135 1121 4.549
a 1135 10284 9.7459
a 1135 12282 5.9479
a 1136 1137 2.2738
a 1136 511 6.1092
a 1136 510 9.3679
a 1137 1136 2.2738
a 1138 9732 9.8402
a 1138 330 9.9979
a 1139 678 16.9495
a 1139 261 45.888
a 1139 449 3.9218
a 1140 11941 3.6
a 1140 632 8.4434
a 1140 9877 15.3346
a 1141 8644 5.1415
a 1141 566 9.5918
a 1142 2441 34.8264
a 1142 9947 2.0239
a 1143 4778 9.8014
a 1143 7773 1.4983
a 1143 11184 15.853
a 1144 11090 2222.6333
a 1144 11290 82.8504
a 1145 1653 2.993
a 1145 1337 8.7336
a 1145 1339 32.6697
a 1145 8167 10.8374
a 1146 1104 16.3109
a 1146 1180 3.7606
a 1147 1178 4.3654
a 1147 1148 3.7642
a 1147 1104 8.4046
a 1148 1147 97.9683
a 1148 1149 10.4162
a 1148 8094 5.765
a 1148 1151 29.3779
a 1149 1104 3.695
a 1149 1152 3.865
a 1149 1150 16.3138
a 1149 1148 10.4162
a 1150 1146 49.1884
a 1150 1149 16.3138
a 1151 1155 1.9894
a 1151 1512 5.2942
a 1151 1148 7.0567
a 1151 1152 9.8431
a 1152 1153 16.2763
a 1152 1149 35.7236
a 1152 1154 3.7001
a 1152 1151 9.8431
a 1153 1152 58.8603
a 1153 1150 3.7822
a 1154 1156 16.3238
a 1154 1155 29.5414
a 1154 1152 3.7001
a 1154 1157 3.8016
a 1155 1154 8.4046
a 1155 1151 1.9894
a 1155 1158 3.8686
a 1156 1154 134.4095
a 1156 1153 3.6641
a 1157 1159 16.3498
a 1157 1158 6.493
a 1157 1154 11.1547
a 1157 1161 9.7423
a 1158 1157 6.493
a 1158 1155 166.2387
a 1158 1211 4.3805
a 1159 1157 16.3498
a 1159 1156 3.487
a 1160 1508 9.895
a 1160 1211 406.7854
a 1160 1507 3.5971
a 1160 1163 3.6468
a 1161 1211 4.4086
a 1161 1162 16.2893
a 1161 1157 3.7822
a 1161 1164 3.0787
a 1162 1161 16.2893
a 1162 1159 3.78
a 1163 1164 75.509
a 1163 1525 9.9317
a 1163 1160 3.6468
a 1163 1166 3.3826
a 1164 1163 8.5284
a 1164 1161 3.0787
a 1164 1167 3.1637
a 1164 1165 16.2619
a 1165 1162 3.24
a 1165 1164 16.2619
a 1166 1524 10.0865
a 1166 1167 6.7795
a 1166 1163 3.3826
a 1166 1169 3.6238
a 1167 1166 6.7795
a 1167 1168 16.2986
a 1167 1164 3.1637
a 1167 1170 22.5402
a 1168 1167 16.2986
a 1168 1165 3.173
a 1169 1379 9.9518
a 1169 1170 5.1192
a 1169 1166 3.6238
a 1169 1172 3.4927
a 1170 1169 5.1192
a 1170 1171 16.3397
a 1170 1167 3.1421
a 1170 1173 3.0593
a 1171 1170 16.3397
a 1171 1168 12.2023
a 1172 1173 3.4286
a 1172 1372 10.031
a 1172 1169 9.4088
a 1172 1356 3.6497
a 1173 1174 16.3397
a 1173 1172 3.4286
a 1173 1170 3.0593
a 1173 1175 138.412
a 1174 1173 16.3397
a 1174 1171 2.9592
a 1175 1173 3.2162
a 1175 11360 2.502
a 1175 1176 16.3411
a 1176 1174 3.4049
a 1176 1175 16.3411
a 1177 1350 16.3361
a 1177 1176 3.096
a 1178 1179 5.8709
a 1178 1183 9.8647
a 1178 1147 4.3654
a 1178 1383 5.4986
a 1179 1180 16.3123
a 1179 1178 5.8709
a 1179 1181 3.6173
a 1179 1104 3.7181
a 1180 1179 16.3123
a 1180 1182 3.7994
a 1181 1182 16.2634
a 1181 11404 43.015
a 1181 1179 3.6173
a 1182 1181 16.2634
a 1182 1184 3.6504
a 1183 1178 9.8647
a 1183 11404 0.5141
a 1183 1186 4.0018
a 1184 11404 16.2914
a 1184 1185 121.5313
a 1185 1186 14.3338
a 1185 1188 3.965
a 1186 1119 5.4065
a 1186 1187 4.7729
a 1186 1183 4.0018
a 1186 1185 48.4794
a 1187 1190 20.8864
a 1187 1186 4.7729
a 1187 1188 11.6114
a 1188 1189 35.5199
a 1188 1187 11.6114
a 1189 1190 138.9133
a 1189 1191 3.883
a 1190 1192 4.5684
a 1190 1187 4.6879
a 1190 1189 8.9302
a 1191 1192 6.4073
a 1191 1635 9.581
a 1192 1191 6.4073
a 1192 1392 5.4806
a 1192 1212 10.9606
a 1192 1190 4.5684
a 1193 1515 2.3429
a 1193 1110 11.6971
a 1193 1467 5.333
a 1193 1105 10.6855
a 1194 1357 3.677
a 1194 1382 2.8202
a 1194 1349 11.0074
a 1195 1206 5.2574
a 1195 1207 5.7874
a 1195 1404 17.3563
a 1195 1451 179.9505
a 1196 1199 5.6614
a 1196 11034 6.3958
a 1196 1204 35.9356
a 1197 1405 5.6779
a 1197 1404 372.6192
a 1197 1207 61.998
a 1198 1439 5.6448
a 1198 1451 5.9976
a 1198 1207 20.4552
a 1199 1203 13.7196
a 1199 1201 5.7096
a 1199 1196 236.6923
a 1200 294 7.303
a 1200 1441 5.9206
a 1200 1112 7.8293
a 1200 11034 5.8738
a 1201 293 7.2864
a 1201 1199 5.7096
a 1201 1452 9.8107
a 1201 1454 110.5585
a 1202 1406 5.8277
a 1202 1452 5.5915
a 1202 1203 46.133
a 1202 1391 9.715
a 1203 1199 13.7196
a 1203 1202 18.2656
a 1203 1204 5.0119
a 1203 1450 16.3577
a 1204 13520 3.8196
a 1204 1203 5.0119
a 1204 1196 11.6914
a 1204 1451 16.3397
a 1205 3212 7.1366
a 1205 1438 174.654
a 1205 1448 6.1524
a 1205 1491 3.9888
a 1206 1195 5.2574
a 1206 1107 5.292
a 1206 13510 13.4806
a 1206 1450 20.4106
a 1207 1111 5.7247
a 1207 1195 5.7874
a 1207 1198 20.4552
a 1207 1197 17.3974
a 1208 3177 6.0746
a 1208 1446 6.0689
a 1208 9946 17.9215
a 1208 3179 17.4744
a 1209 1404 44.0936
a 1209 1460 6.9926
a 1209 1210 11.5812
a 1209 2462 10.728
a 1210 1405 6.9538
a 1210 1484 6.9984
a 1210 1209 11.5812
a 1210 1115 12.0521
a 1211 1158 4.3805
a 1211 1160 5.8946
a 1211 1161 4.4086
a 1212 1192 608.916
a 1212 1636 2.5013
a 1212 1635 2.6986
a 1213 1457 15.8515
a 1213 8419 5.4259
a 1213 1582 178.504
a 1214 11409 0.6682
a 1214 2019 25.9049
a 1214 12363 1.813
a 1215 11409 0.9187
a 1215 293 31.7347
a 1215 1615 55.3613
a 1216 1403 225.5863
a 1216 1574 5.598
a 1216 1592 20.5711
a 1216 1614 19.3428
a 1217 9113 2.9196
a 1217 8422 4.9154
a 1218 12380 2.4249
a 1218 11331 8.2159
a 1219 8436 1.2773
a 1219 152 11.8217
a 1220 4972 3.0391
a 1220 12075 11.6906
a 1221 9891 1.1578
a 1221 11330 1.2492
a 1221 7759 14.8298
a 1222 8788 1.7957
a 1222 11580 2.5884
a 1222 6845 9.3139
a 1223 9900 3.4286
a 1223 6815 11.3003
a 1223 6817 4.2984
a 1223 11679 5.1293
a 1224 9583 1.6625
a 1224 8782 4.0018
a 1224 6857 7.7918
a 1225 12062 0.5695
a 1226 3534 0.859
a 1226 13073 1.9843
a 1226 12463 3.6468
a 1227 521 9.5774
a 1227 523 17.7494
a 1227 7242 4.7498
a 1228 1229 6.7738
a 1228 9487 19.2383
a 1228 7242 2.9974
a 1229 7241 7.1849
a 1229 1228 6.7738
a 1229 9488 3.3415
a 1230 8378 118.082
a 1230 7557 0.9238
a 1230 537 11.3076
a 1231 1237 8.4816
a 1231 537 5.7204
a 1231 1232 1.9771
a 1232 1233 17.3023
a 1232 1234 4.5518
a 1232 7545 4.7412
a 1232 1231 1.9771
a 1233 7247 55.0564
a 1233 3081 1.3097
a 1233 1232 17.3023
a 1234 1235 4.1645
a 1234 1232 17.4369
a 1234 7247 14.4022
a 1234 7537 55.2337
a 1235 7554 0.7337
a 1235 1234 4.1645
a 1235 7550 8.7955
a 1236 7550 2.4746
a 1236 1295 7.6853
a 1236 7247 4.3956
a 1237 7546 3.852
a 1237 1231 8.4816
a 1237 11954 0.0986
a 1238 535 4.3445
a 1238 1239 4.7059
a 1238 7548 3.325
a 1239 7547 17.3183
a 1239 565 4.1234
a 1240 8079 6.3223
a 1240 1317 2.8051
a 1240 2476 4.6145
a 1241 1313 6.9876
a 1241 10130 587.6651
a 1241 541 6.8947
a 1242 548 201.7629
a 1242 7502 4.3819
a 1242 7162 7.6104
a 1243 7164 3.078
a 1243 11865 5.1278
a 1244 8074 292.5886
a 1244 8076 6.7226
a 1244 7164 3.0845
a 1245 9052 0.1498
a 1245 547 2.7562
a 1245 542 32.1149
a 1246 1282 4.171
a 1246 546 15.4973
a 1246 1247 303.055
a 1247 2004 4.5065
a 1247 1283 2.0822
a 1247 1246 6.2165
a 1248 7169 4.9421
a 1249 1300 2.3184
a 1249 1304 5.0278
a 1249 10226 25.7069
a 1250 1321 7.5024
a 1250 2911 4.7606
a 1250 1297 6.4296
a 1251 1297 8.0539
a 1251 13044 29.1931
a 1251 1254 6.9314
a 1252 1255 6.9811
a 1252 1251 605.5317
a 1253 13045 0.5846
a 1253 11181 4.5144
a 1254 1271 4.0212
a 1254 1255 14.953
a 1254 7833 16.0913
a 1254 1251 6.9314
a 1255 1272 3.8117
a 1255 1254 14.953
a 1255 10135 16.1086
a 1256 1271 3.7951
a 1256 1258 5.3215
a 1256 13047 25.8185
a 1256 1257 15.0559
a 1257 1259 5.3136
a 1257 1256 15.0559
a 1257 10138 14.85
a 1258 1256 5.3215
a 1258 482 24.8076
a 1258 1260 4.9342
a 1259 13495 7.5924
a 1259 12314 5.0213
a 1260 1262 5.1149
a 1260 12314 15.0732
a 1260 1258 4.9342
a 1261 12130 23.6555
a 1261 9685 9.5494
a 1262 1260 21.063
a 1262 1261 22.7765
a 1262 1264 19.2724
a 1262 1263 15.025
a 1263 1269 5.0191
a 1263 1262 15.025
a 1263 10136 12.0298
a 1264 1269 15.0372
a 1264 1262 4.9572
a 1264 1265 5.1242
a 1265 1264 5.1242
a 1265 7455 6.2345
a 1266 1268 5.8003
a 1266 1265 15.0516
a 1267 2898 4.7909
a 1267 2985 12.3991
a 1267 1320 7.3418
a 1268 7342 9.5184
a 1269 1266 5.1005
a 1269 1264 15.0372
a 1269 10228 11.1751
a 1270 1301 0.7466
a 1270 1296 6.251
a 1271 1272 14.9926
a 1271 1254 4.0212
a 1271 1256 3.7951
a 1272 1271 67.6537
a 1272 1257 3.8794
a 1272 10139 15.5045
a 1273 1274 4.5605
a 1273 1278 4.8794
a 1273 4379 11.3249
a 1274 7551 3.4121
a 1274 533 11.4329
a 1274 565 5.5915
a 1275 529 1.3442
a 1275 530 1.6121
a 1275 1276 4.5353
a 1276 1277 15.8663
a 1276 1275 4.5353
a 1277 1279 6.9192
a 1277 1276 4.1681
a 1277 1278 4.6757
a 1278 9489 2.2046
a 1278 1273 4.8794
a 1278 1277 4.6757
a 1279 1277 6.9192
a 1279 7551 3.047
a 1279 12012 66.837
a 1279 563 3.6994
a 1280 528 3.9499
a 1280 563 0.5263
a 1280 1276 6.8623
a 1281 7384 2.97
a 1281 529 9.7056
a 1281 272 7.7789
a 1282 1246 4.171
a 1282 2005 9.7988
a 1282 4365 7.5247
a 1283 2770 4.9046
a 1283 1247 2.0822
a 1283 1284 126.7592
a 1284 132 8.0719
a 1284 8971 7.3476
a 1284 1283 4.3078
a 1285 272 4.4431
a 1285 1286 17.2411
a 1285 2480 33.2108
a 1286 132 2.3882
a 1286 1285 17.2411
a 1286 13035 6.1416
a 1287 2770 9.9137
a 1287 2480 4.3279
a 1287 1288 9.7308
a 1288 8073 3.9377
a 1288 2770 7.812
a 1289 556 3.9283
a 1289 1290 3.263
a 1289 555 12.6274
a 1290 1289 3.263
a 1290 558 0.7862
a 1290 7539 10.1628
a 1291 7542 0.7258
a 1291 7545 4.7131
a 1291 1292 8.0222
a 1292 560 0.7164
a 1292 1291 8.0222
a 1292 552 3.8268
a 1293 273 4.433
a 1294 8079 7.5802
a 1294 8079 59.621
a 1294 274 4.5439
a 1294 4331 10.6495
a 1295 1236 7.6853
a 1295 2475 26.5896
a 1295 7512 21.2342
a 1296 1252 7.5838
a 1296 10133 18.0554
a 1297 1250 6.4296
a 1297 1251 8.0539
a 1297 1296 15.0602
a 1298 13043 6.0271
a 1298 99 6.7961
a 1298 1297 30.3631
a 1299 1308 3.2882
a 1299 1300 3.5417
a 1299 1303 7.321
a 1300 1299 3.5417
a 1300 1249 2.3184
a 1300 1320 8.2656
a 1301 1310 3.7238
a 1301 1302 7.3678
a 1302 1311 3.8088
a 1302 1307 6.9775
a 1303 1306 7.1496
a 1303 1304 3.6526
a 1303 2771 3.2695
a 1303 1299 610.5282
a 1304 1303 3.6526
a 1304 1249 181.1969
a 1304 1305 7.1201
a 1305 1306 3.6562
a 1305 1304 7.1201
a 1305 10225 5.863
a 1306 1303 7.1496
a 1306 10131 5.3431
a 1306 1309 3.3768
a 1306 1305 3.6562
a 1307 7108 3.8621
a 1307 9705 3.847
a 1308 1310 3.3516
a 1308 1299 3.2882
a 1308 2771 33.2875
a 1309 7108 3.1414
a 1309 1306 3.3768
a 1309 10132 4.8967
a 1309 2771 17.3558
a 1310 1308 3.3516
a 1310 1311 7.3721
a 1310 1301 3.7238
a 1311 2771 3.2573
a 1311 1302 3.8088
a 1311 7108 7.0049
a 1311 1310 7.3721
a 1312 1314 4.837
a 1312 1313 27.0454
a 1312 3169 9.8287
a 1313 1241 6.9876
a 1313 1312 27.0454
a 1313 3020 8.5097
a 1314 1312 4.837
a 1314 540 6.9638
a 1314 3020 14.0897
a 1314 7359 4.2746
a 1315 12149 13.1918
a 1315 12724 4.7405
a 1316 11026 4.379
a 1316 540 4.459
a 1316 7511 7.9978
a 1317 7502 18.8806
a 1317 1240 2.8051
a 1317 2772 8.6983
a 1318 7502 12.613
a 1319 1318 5.5591
a 1319 11701 2.7
a 1320 3017 4.9032
a 1320 1267 7.3418
a 1320 1300 8.2656
a 1321 2862 4.788
a 1321 1270 7.6018
a 1322 1325 2.857
a 1322 7107 35.6875
a 1322 8084 6.8378
a 1323 7364 22.009
a 1323 1326 12.8268
a 1323 4358 44.015
a 1324 7252 2.0484
a 1324 1325 6.0055
a 1324 7364 13.7261
a 1325 1322 2.857
a 1325 1324 6.0055
a 1325 12839 12.6684
a 1326 1323 12.8268
a 1326 7253 13.037
a 1326 12771 7.4426
a 1327 7253 4.4057
a 1327 1329 3.4409
a 1328 7251 7.6954
a 1328 7363 7.6838
a 1328 7504 20.6396
a 1329 1327 35.594
a 1329 7504 11.8056
a 1329 1330 23.8297
a 1330 8778 1.9555
a 1330 1329 7.9049
a 1330 1327 16.8185
a 1331 7440 20.0393
a 1331 5242 7.9547
a 1332 1653 3.2278
a 1332 8167 259.0829
a 1333 1338 3.4164
a 1333 1109 11.8116
a 1333 1334 11.5862
a 1334 1342 5.1998
a 1334 1333 11.5862
a 1334 1335 11.646
a 1335 1343 3.3559
a 1335 1336 11.6626
a 1335 1334 11.646
a 1336 1335 11.6626
a 1337 1340 3.4546
a 1337 1652 2.7511
a 1337 8370 6.9113
a 1337 1145 8.7336
a 1338 2459 11.6258
a 1338 1113 3.3833
a 1338 1333 3.4164
a 1339 1340 8.4802
a 1339 1351 3.8801
a 1339 1145 3.4373
a 1340 1341 12.8261
a 1340 1339 8.4802
a 1340 1381 3.8815
a 1340 1337 3.4546
a 1341 1113 11.6518
a 1341 1340 12.8261
a 1341 1355 3.4819
a 1341 2459 3.6454
a 1342 1113 11.4552
a 1342 1353 3.618
a 1342 1334 5.1998
a 1342 1343 11.4178
a 1343 1344 41.7361
a 1343 1352 3.6209
a 1343 1342 11.4178
a 1344 1343 11.6338
a 1344 1336 2.0419
a 1344 1364 11.6474
a 1345 1346 406.5155
a 1345 1794 1.2931
a 1346 1347 11.3868
a 1346 1345 43.898
a 1346 1361 15.9403
a 1347 1348 11.4235
a 1347 1346 11.3868
a 1347 1353 3.2558
a 1347 1360 3.6598
a 1348 1349 47.0161
a 1348 1347 11.4235
a 1348 1358 14.1534
a 1348 1354 3.5712
a 1349 1194 419.8951
a 1349 1348 11.6474
a 1349 1359 36.4312
a 1349 1355 3.5201
a 1350 1177 143.8129
a 1350 4098 3.6497
a 1350 11360 0.7402
a 1350 1351 5.4187
a 1351 4097 14.759
a 1351 1339 3.8801
a 1351 1350 5.4187
a 1352 11357 11.6834
a 1352 1353 11.3407
a 1352 1346 3.3595
a 1353 1352 11.3407
a 1353 1354 11.3976
a 1353 1347 3.2558
a 1353 1342 3.618
a 1354 1353 11.3976
a 1354 1355 11.731
a 1354 1348 3.5712
a 1354 1113 3.6907
a 1355 1354 11.731
a 1355 1381 13.2797
a 1355 1349 3.5201
a 1355 1341 3.4819
a 1356 1357 10.0397
a 1356 1172 3.6497
a 1356 11360 2.767
a 1357 1372 3.5064
a 1357 1194 3.677
a 1357 1359 10.8151
a 1357 1356 10.0397
a 1358 1360 98.4412
a 1358 1359 11.6928
a 1358 1370 3.6014
a 1358 1348 3.4819
a 1359 1358 11.6928
a 1359 1357 10.8151
a 1359 1371 3.5316
a 1359 1349 40.1083
a 1360 1361 11.3638
a 1360 1358 11.4797
a 1360 1369 3.6281
a 1360 1347 3.6598
a 1361 2458 33.923
a 1361 1360 11.3638
a 1361 1368 3.6389
a 1362 1363 143.222
a 1362 2458 11.6482
a 1362 1366 3.3199
a 1362 1798 2.7173
a 1363 1362 11.6201
a 1363 1799 2.9124
a 1364 1792 2.8555
a 1364 7927 2.3623
a 1364 1344 137.1213
a 1365 1368 11.5956
a 1365 1366 11.651
a 1365 2458 3.3437
a 1366 1367 11.6273
a 1366 1375 3.3444
a 1366 1362 3.3199
a 1366 1365 11.651
a 1367 1366 11.6273
a 1367 1363 3.1378
a 1368 1369 11.3508
a 1368 1365 11.5956
a 1368 1374 3.4949
a 1369 1370 11.5963
a 1369 1368 11.3508
a 1369 1376 3.6302
a 1369 1360 3.6281
a 1370 1371 11.5186
a 1370 1369 11.5963
a 1370 1377 3.5683
a 1370 1358 3.6014
a 1371 1372 10.8842
a 1371 1370 11.5186
a 1371 1378 3.6324
a 1371 1359 3.5316
a 1372 1379 134.4774
a 1372 1357 3.5064
a 1372 1172 10.031
a 1372 1371 10.8842
a 1373 1374 45.1375
a 1373 1365 3.7166
a 1373 1375 44.532
a 1374 1373 56.5129
a 1374 1376 11.3954
a 1374 1785 3.6871
a 1375 1366 3.3444
a 1375 1373 11.6496
a 1375 1118 1.6812
a 1376 1374 11.3954
a 1376 1377 11.5906
a 1376 1520 3.5518
a 1376 1369 3.6302
a 1377 1376 11.5906
a 1377 1378 11.52
a 1377 2457 3.5388
a 1377 1370 3.5683
a 1378 1377 11.52
a 1378 1379 10.9541
a 1378 1522 3.6274
a 1378 1371 3.6324
a 1379 1524 3.7584
a 1379 1372 3.4855
a 1379 1378 47.8127
a 1379 1169 9.9518
a 1380 1652 2.8822
a 1380 1108 0.9238
a 1380 8371 8.5046
a 1381 1355 13.2797
a 1381 4097 3.8801
a 1381 1382 4.5986
a 1381 1340 3.8815
a 1382 4098 3.4106
a 1382 1194 2.8202
a 1382 1381 4.5986
a 1383 1178 5.4986
a 1383 9353 59.0757
a 1383 1119 13.963
a 1383 8094 8.9424
a 1384 1385 29.6458
a 1384 2455 6.7399
a 1384 1387 13.2595
a 1384 13514 6.7838
a 1385 1435 3.9197
a 1385 1384 62.2561
a 1385 11410 1.3111
a 1385 12155 12.006
a 1386 2460 4.4093
a 1386 1397 12.7534
a 1386 1107 7.83
a 1387 1393 205.2518
a 1387 1384 590.9157
a 1387 1388 6.7946
a 1387 1458 6.5074
a 1388 8367 0.6941
a 1388 1389 17.6192
a 1388 11410 12.3098
a 1388 1387 6.7946
a 1389 1434 4.1429
a 1389 1388 4.0896
a 1389 1432 13.9442
a 1389 11410 11.6842
a 1390 1398 14.5274
a 1390 1399 13.6613
a 1390 1411 224.5109
a 1390 1413 4.8989
a 1391 1407 5.3784
a 1391 1394 13.5418
a 1391 1202 9.715
a 1391 1453 5.5246
a 1392 1462 5.5332
a 1392 1192 5.4806
a 1392 1636 110.8836
a 1392 1119 55.5917
a 1393 1395 6.9545
a 1393 1457 6.4066
a 1393 1582 13.9615
a 1393 1387 14.2308
a 1394 8144 5.8363
a 1394 1391 13.5418
a 1394 1408 5.4907
a 1395 8367 13.5036
a 1395 1400 5.5822
a 1395 1393 6.9545
a 1395 8366 4.2235
a 1396 1403 5.3438
a 1396 1397 13.6663
a 1396 1420 4.4107
a 1396 1418 5.017
a 1397 1396 13.6663
a 1397 1386 12.7534
a 1397 1419 5.0998
a 1397 1422 4.176
a 1398 1414 5.3028
a 1398 1410 5.3201
a 1398 1450 55.4813
a 1398 1390 14.5274
a 1399 1401 5.3467
a 1399 1390 13.6613
a 1399 1409 5.1595
a 1399 1412 4.8614
a 1400 1431 9.9302
a 1400 1395 5.5822
a 1400 1402 6.3965
a 1401 1403 19.3313
a 1401 1399 5.3467
a 1401 1614 6.21
a 1402 1592 11.682
a 1402 1400 6.3965
a 1402 1582 7.2274
a 1403 1216 6.2316
a 1403 1396 5.3438
a 1403 1401 19.3313
a 1403 13508 180.8784
a 1404 1485 5.2034
a 1404 1195 17.3563
a 1404 1197 5.9177
a 1404 1209 7.0099
a 1405 1111 17.4262
a 1405 1210 49.7844
a 1405 1197 19.8953
a 1406 1407 11.3184
a 1406 1202 40.2953
a 1406 1410 5.4029
a 1407 1408 13.6728
a 1407 1406 11.3184
a 1407 1391 5.3784
a 1407 1411 5.1725
a 1408 1407 13.6728
a 1408 1409 289.8694
a 1408 1394 5.4907
a 1409 1408 5.0623
a 1409 1411 13.6742
a 1409 1399 5.1595
a 1410 1406 5.4029
a 1410 1411 12.9283
a 1410 1398 5.3201
a 1411 1407 44.049
a 1411 1410 12.9283
a 1411 1409 13.6742
a 1411 1390 5.1134
a 1412 1413 388.677
a 1412 1399 4.8614
a 1412 1415 4.685
a 1413 1412 13.6786
a 1413 1414 144.9329
a 1413 1416 191.738
a 1413 1390 4.8989
a 1414 1398 5.3028
a 1414 1417 4.8254
a 1414 1413 16.0913
a 1415 1416 13.6966
a 1415 1418 4.6678
a 1415 1412 4.685
a 1416 1415 13.6966
a 1416 1417 17.5126
a 1416 1413 4.6188
a 1416 1419 4.8326
a 1417 1414 4.8254
a 1417 1416 17.5126
a 1417 1421 4.9306
a 1418 1415 132.816
a 1418 1396 5.017
a 1418 1419 13.7297
a 1419 1421 53.5935
a 1419 1397 160.6765
a 1419 1418 13.7297
a 1419 1416 174.6641
a 1420 1396 4.4107
a 1420 1424 129.5535
a 1420 1422 13.5576
a 1421 1107 5.2546
a 1421 1419 215.5911
a 1421 1417 4.9306
a 1422 2460 12.8635
a 1422 1397 89.755
a 1422 1425 3.9996
a 1422 1420 13.5576
a 1423 1107 4.5468
a 1423 2774 21.6745
a 1423 2460 66.6357
a 1424 1420 4.0579
a 1424 1430 3.9017
a 1424 1425 97.3109
a 1425 1426 12.965
a 1425 1422 3.9996
a 1425 1429 4.1306
a 1425 1424 13.4935
a 1426 2460 3.9442
a 1426 1428 4.1681
a 1426 1425 12.965
a 1426 2774 10.427
a 1427 2774 17.376
a 1427 1106 4.1587
a 1427 1428 11.7281
a 1428 1426 4.1681
a 1428 1435 4.1551
a 1428 1429 13.0046
a 1428 1427 11.7281
a 1429 1428 13.0046
a 1429 1425 4.1306
a 1429 1434 4.0054
a 1429 1430 309.8304
a 1430 1424 3.9017
a 1430 1433 13.5393
a 1430 1429 48.4072
a 1431 13508 5.6621
a 1431 1400 9.9302
a 1431 1592 6.1106
a 1431 1432 4.9522
a 1432 1431 4.9522
a 1432 1389 13.9442
a 1432 1433 4.2005
a 1432 8366 3.9924
a 1433 1430 4.0406
a 1433 1432 4.2005
a 1433 1434 13.3438
a 1434 1435 13.0414
a 1434 1429 4.0054
a 1434 1389 4.1429
a 1434 1433 13.3438
a 1435 1428 20.9788
a 1435 1385 3.9197
a 1435 1434 118.0826
a 1435 12155 11.5567
a 1436 1445 6.2129
a 1436 1111 6.0674
a 1436 1440 20.4329
a 1437 1442 5.9544
a 1437 1441 7.6882
a 1437 1112 5.9782
a 1437 13522 7.6745
a 1438 1447 6.017
a 1438 9946 2.484
a 1438 1205 16.6154
a 1438 1489 9.2282
a 1439 1440 27.46
a 1439 1198 5.6448
a 1439 1112 16.5089
a 1439 1111 20.3213
a 1440 13522 8.8142
a 1440 1443 119.476
a 1440 1439 6.1826
a 1440 1436 20.4329
a 1441 1444 6.1106
a 1441 1437 7.6882
a 1441 1200 39.2061
a 1442 1437 5.9544
a 1442 1448 6.0991
a 1442 1444 8.6105
a 1442 1443 16.5658
a 1443 1442 16.5658
a 1443 1445 20.4005
a 1443 1447 6.0588
a 1443 1440 49.656
a 1444 1441 6.1106
a 1444 1442 8.6105
a 1444 1449 6.3929
a 1445 1436 6.2129
a 1445 1443 20.4005
a 1445 1446 6.0091
a 1446 1208 6.0689
a 1446 1445 6.0091
a 1446 1447 20.4062
a 1447 1448 16.6032
a 1447 1438 6.017
a 1447 1443 6.0588
a 1447 1446 20.4062
a 1448 1442 6.0991
a 1448 1449 10.4551
a 1448 1447 16.6032
a 1448 1205 6.1524
a 1449 1517 6.7363
a 1449 1448 328.5146
a 1449 1444 271.3649
a 1450 1206 20.4106
a 1450 1451 5.0472
a 1450 1398 5.3597
a 1450 1203 16.3577
a 1451 1198 5.9976
a 1451 1450 5.0472
a 1451 1195 20.399
a 1452 1202 5.5915
a 1452 1201 9.8107
a 1452 1453 7.9898
a 1453 9042 6.8213
a 1453 1454 9.486
a 1453 1452 7.9898
a 1453 1391 5.5246
a 1454 1453 9.486
a 1454 1456 7.231
a 1454 1201 4.829
a 1455 9042 366.6602
a 1455 8144 5.7132
a 1455 1456 14.4655
a 1456 9042 9.2786
a 1456 1455 14.4655
a 1456 1454 7.231
a 1457 1458 572.805
a 1457 1213 147.8281
a 1457 1393 6.4066
a 1457 1476 4.0882
a 1458 1457 14.2711
a 1458 1475 20.2876
a 1458 2455 13.3416
a 1458 1387 54.7587
a 1459 1460 10.7539
a 1459 2455 13.6807
a 1459 1473 6.912
a 1459 2462 6.9077
a 1460 1459 10.7539
a 1460 1209 83.9368
a 1460 1477 6.9437
a 1461 1470 6.6838
a 1461 1118 66.3865
a 1461 1780 10.5516
a 1461 1465 24.4649
a 1462 1476 4.297
a 1462 1392 5.5332
a 1462 9354 14.2186
a 1462 9355 27.8208
a 1463 1471 6.7176
a 1463 1114 5.3676
a 1463 1464 12.1889
a 1463 2456 12.065
a 1464 1110 5.3359
a 1464 1467 11.61
a 1464 1463 12.1889
a 1464 1472 6.7954
a 1465 3 4.6735
a 1465 1461 82.9567
a 1466 1473 6.858
a 1466 1105 5.4756
a 1466 9353 14.0011
a 1466 1467 10.7215
a 1467 1477 6.8357
a 1467 1193 5.333
a 1467 1464 11.61
a 1468 1470 22.2797
a 1468 1465 7.4239
a 1469 1482 6.9098
a 1469 2456 6.791
a 1469 13477 6.025
a 1469 1788 12.0852
a 1470 1478 22.7589
a 1470 1461 6.6838
a 1470 1781 10.5516
a 1470 1468 22.2797
a 1471 1483 6.8364
a 1471 1463 6.7176
a 1471 1472 220.2256
a 1471 13474 3.5482
a 1472 13476 5.7679
a 1472 1471 12.0629
a 1472 1484 6.9523
a 1472 1464 6.7954
a 1473 1459 6.912
a 1473 1466 6.858
a 1473 13512 8.4938
a 1474 2455 57.8449
a 1474 9353 5.8954
a 1474 1475 13.4014
a 1474 13512 5.3575
a 1475 1458 5.2834
a 1475 9354 34.6476
a 1475 1476 14.2222
a 1475 1474 13.4014
a 1476 1457 10.0149
a 1476 1462 4.297
a 1476 1475 14.2222
a 1476 9355 11.2248
a 1477 1460 6.9437
a 1477 1467 6.8357
a 1477 13476 5.8298
a 1477 1473 10.6999
a 1478 1479 7.1669
a 1478 1470 6.6636
a 1478 13468 7.0848
a 1478 1481 58.3612
a 1479 1478 7.1669
a 1479 1783 10.3435
a 1479 2183 13.8514
a 1479 1486 8.0057
a 1480 1491 9.6847
a 1480 1488 15.6233
a 1480 1526 8.2937
a 1481 7467 10.8592
a 1481 1478 20.0779
a 1482 1469 6.9098
a 1482 1483 12.0737
a 1482 13470 7.627
a 1482 1117 6.7939
a 1483 1115 7.025
a 1483 1471 6.8364
a 1483 1484 12.1478
a 1483 1482 12.0737
a 1484 1210 32.7061
a 1484 1483 12.1478
a 1484 1472 6.9523
a 1485 1404 5.2034
a 1485 1106 5.4108
a 1485 13510 3.9132
a 1486 13451 11.3954
a 1486 1479 8.0057
a 1486 737 10.0613
a 1487 1488 26.8332
a 1487 2179 19.6358
a 1487 736 9.1282
a 1488 1487 7.8725
a 1488 1480 15.6233
a 1488 2180 19.6056
a 1488 1489 9.7488
a 1489 1491 15.6996
a 1489 1490 19.507
a 1489 1488 9.7488
a 1489 1438 9.2282
a 1490 2180 9.8352
a 1490 1489 19.507
a 1490 3177 9.3953
a 1490 3178 20.147
a 1491 1489 479.9647
a 1491 1480 9.6847
a 1491 1205 10.4182
a 1492 1495 28.6898
a 1492 620 6.6852
a 1492 11174 54.8438
a 1493 143 1.4609
a 1493 13410 4.9234
a 1494 1493 21.6192
a 1494 8928 20.6273
a 1495 619 6.9581
a 1495 282 15.9502
a 1495 608 305.4019
a 1496 2428 0.8813
a 1496 610 19.2744
a 1497 1498 10.8166
a 1498 2396 17.2578
a 1498 280 1.3147
a 1498 1499 15.1726
a 1499 1765 1.2326
a 1499 1500 15.6859
a 1499 2401 5.5634
a 1500 1767 1.2607
a 1500 2390 5.7751
a 1500 1501 27.0238
a 1501 279 18.4389
a 1501 10073 17.3102
a 1501 2018 7.4246
a 1502 12581 6.3835
a 1502 608 1.4234
a 1502 282 26.3138
a 1503 1494 1.4652
a 1503 12766 5.1134
a 1504 1505 54.4276
a 1504 1114 2.219
a 1504 1510 3.5719
a 1505 1506 11.0182
a 1505 1504 156.5167
a 1505 1514 14.0513
a 1505 1509 3.5885
a 1506 1513 3.7022
a 1506 1508 3.605
a 1506 1507 9.9382
a 1506 1505 11.0182
a 1507 1506 9.9382
a 1507 1512 3.6792
a 1507 1160 3.5971
a 1508 1506 3.605
a 1508 1525 3.4322
a 1508 1509 11.0066
a 1508 1160 9.895
a 1509 1510 11.5826
a 1509 1508 11.0066
a 1509 1505 3.5885
a 1509 1523 3.7634
a 1510 1509 11.5826
a 1510 1504 3.5719
a 1510 1519 3.533
a 1510 1511 11.5819
a 1511 1521 3.6137
a 1511 1510 299.2702
a 1511 1116 2.0383
a 1512 1513 9.8791
a 1512 1151 5.2942
a 1512 1516 3.5438
a 1512 1507 3.6792
a 1513 1515 3.6655
a 1513 1506 3.7022
a 1513 1514 11.0059
a 1513 1512 9.8791
a 1514 1513 11.0059
a 1514 1110 2.1751
a 1514 1505 3.6194
a 1515 1193 2.3429
a 1515 1513 3.6655
a 1515 1516 9.9482
a 1516 1515 9.9482
a 1516 1512 3.5438
a 1516 1105 5.7182
a 1517 1449 6.7363
a 1517 3212 6.0847
a 1517 1518 17.5522
a 1517 295 7.8221
a 1518 1527 6.6982
a 1518 1517 17.5522
a 1519 1523 11.4703
a 1519 1521 11.6863
a 1519 1510 3.533
a 1519 2457 11.9183
a 1520 1785 11.3774
a 1520 2457 11.677
a 1520 1521 3.5561
a 1520 1376 3.5518
a 1521 1519 11.6863
a 1521 4096 11.268
a 1521 1511 3.6137
a 1521 1520 3.5561
a 1522 2457 11.4682
a 1522 1524 10.9548
a 1522 1523 3.4502
a 1522 1378 3.6274
a 1523 1525 11.0045
a 1523 1519 11.4703
a 1523 1509 3.7634
a 1523 1522 3.4502
a 1524 1525 3.51
a 1524 1379 3.7584
a 1524 1522 10.9548
a 1524 1166 106.3717
a 1525 1508 3.4322
a 1525 1524 3.51
a 1525 1163 9.9317
a 1525 1523 11.0045
a 1526 13444 150.3121
a 1526 1480 8.2937
a 1526 8928 38.915
a 1527 12765 3.8995
a 1528 3533 1381.4812
a 1528 2482 17.8659
a 1528 102 8.7667
a 1529 2483 5.1667
a 1529 3533 553.6192
a 1529 2831 8.0618
a 1530 1532 4.4266
a 1530 11451 19.525
a 1530 8615 5.3878
a 1531 155 5.0839
a 1531 1532 16.6442
a 1531 11451 4.405
a 1532 9106 4.8175
a 1532 1530 4.4266
a 1533 2481 4.3027
a 1533 9106 5.0976
a 1534 438 8.4542
a 1534 682 16.4563
a 1534 12424 5.3122
a 1534 9873 741.7308
a 1535 7439 8.3362
a 1535 682 8.0878
a 1535 455 16.8358
a 1535 9873 16.3742
a 1536 457 8.3016
a 1536 1539 8.6134
a 1536 12358 2.075
a 1536 680 11.3047
a 1537 1862 490.6276
a 1537 461 8.3866
a 1537 3182 6.3187
a 1537 13449 6.0185
a 1538 461 14.1113
a 1538 3203 9.175
a 1538 3181 7.5773
a 1538 3193 74.1439
a 1539 10821 8.7538
a 1539 1536 8.6134
a 1539 8914 23.9213
a 1539 2453 23.3093
a 1540 13618 7.7083
a 1540 7730 5.9479
a 1541 1542 9.365
a 1541 7769 12.762
a 1541 1099 8.6947
a 1541 5 24.3418
a 1542 684 3.6158
a 1542 1541 9.365
a 1543 12419 4.4568
a 1543 5 9.0641
a 1544 1561 3.5215
a 1544 1563 18.6876
a 1544 1562 277.0272
a 1544 603 4.05
a 1545 1563 18.2546
a 1545 603 182.2281
a 1545 9359 4.2941
a 1546 11068 1.7683
a 1546 1547 5.3014
a 1547 1555 7.6039
a 1547 1550 17.9539
a 1547 1546 5.3014
a 1548 1554 5.3165
a 1548 1558 7.7918
a 1548 1557 7.1208
a 1548 1549 5.1458
a 1549 1557 49.3882
a 1549 1562 5.6117
a 1549 1561 11.3566
a 1549 1548 5.1458
a 1550 2429 7.3094
a 1550 1547 17.9539
a 1550 1551 7.6471
a 1550 1554 5.5829
a 1551 1556 5.7197
a 1551 2430 7.1633
a 1551 1552 19.8504
a 1551 1550 7.6471
a 1552 1553 5.3194
a 1552 615 7.2605
a 1552 1551 19.8504
a 1553 1552 5.3194
a 1553 1556 19.4234
a 1553 1559 5.454
a 1554 1548 5.3165
a 1554 1555 12.5532
a 1554 1556 7.794
a 1554 1550 5.5829
a 1555 1547 7.6039
a 1555 1557 32.7263
a 1555 1554 12.5532
a 1556 1553 19.4234
a 1556 1558 5.2027
a 1556 1551 67.5296
a 1556 1554 7.794
a 1557 1549 269.5424
a 1557 1555 7.5074
a 1557 1548 7.1208
a 1558 1561 3.78
a 1558 1556 5.2027
a 1558 1559 53.7253
a 1558 1548 7.7918
a 1559 9928 3.3581
a 1559 1553 83.0482
a 1559 1558 18.9958
a 1560 1563 13.932
a 1560 9928 0.4363
a 1560 1561 18.7135
a 1561 1544 3.5215
a 1561 1558 3.78
a 1561 1560 158.0369
a 1561 1549 11.3566
a 1562 1549 5.6117
a 1562 603 6.9782
a 1562 1544 7.0524
a 1563 1545 5.688
a 1563 1560 3.7022
a 1563 1544 18.6876
a 1564 66 1.6481
a 1564 2983 6.5045
a 1565 1564 1.2686
a 1565 11783 26.5147
a 1566 1095 6.1063
a 1566 11003 20.101
a 1567 91 0.6638
a 1567 1094 6.9667
a 1567 1566 61.4273
a 1568 1565 14.6364
a 1568 13013 1.0642
a 1569 10297 36.6329
a 1569 3328 22.5742
a 1569 12736 19.8166
a 1570 11497 3.7404
a 1570 7752 17.0698
a 1570 10230 22.2026
a 1571 3318 26.5349
a 1571 3318 3.5712
a 1571 12228 11.4458
a 1572 1871 11.3645
a 1572 1868 5.7298
a 1573 1581 5.1984
a 1573 1579 17.9042
a 1574 1629 5.0105
a 1574 1216 5.598
a 1574 1613 19.381
a 1574 4095 5.5238
a 1575 2764 8.9726
a 1575 292 3.5114
a 1576 1605 11.0059
a 1576 1584 5.4425
a 1576 1577 4.7779
a 1577 1603 3.8016
a 1577 1606 19.9145
a 1577 1578 10.764
a 1577 1576 4.7779
a 1578 1581 141.5598
a 1578 1604 103.023
a 1578 1579 5.3878
a 1578 1577 10.764
a 1579 1100 0.9994
a 1579 1602 102.6866
a 1579 1578 5.3878
a 1580 1585 5.4742
a 1581 1573 5.1984
a 1581 1578 17.8042
a 1581 1606 5.0342
a 1582 1583 5.6966
a 1582 1402 7.2274
a 1582 1213 6.8018
a 1582 1393 13.9615
a 1583 1584 20.4466
a 1583 1588 4.8629
a 1583 1601 24.6165
a 1583 1582 5.6966
a 1584 1583 20.4466
a 1584 1576 5.4425
a 1584 1587 4.7484
a 1584 1585 79.5868
a 1585 1584 23.3503
a 1585 1586 41.725
a 1586 1587 22.8341
a 1586 1591 4.3481
a 1587 1584 4.7484
a 1587 1589 106.712
a 1587 1588 20.4559
a 1587 1586 22.8341
a 1588 1590 4.4114
a 1588 1583 4.8629
a 1588 1587 20.4559
a 1589 1591 182.4644
a 1589 1587 4.325
a 1589 1595 4.5842
a 1589 1590 783.7921
a 1590 1596 4.3985
a 1590 1588 4.4114
a 1590 1589 20.4646
a 1591 1589 162.4539
a 1591 13108 27.302
a 1592 1431 6.1106
a 1592 1402 11.682
a 1592 1216 183.0791
a 1592 1593 14.1132
a 1593 1596 5.1746
a 1593 1597 4.7484
a 1593 1594 20.5387
a 1593 1592 5.647
a 1594 1598 5.2034
a 1594 1593 247.6323
a 1594 1595 46.1647
a 1595 1589 4.5842
a 1595 1594 4.8902
a 1595 1596 20.4761
a 1596 1593 5.1746
a 1596 1590 4.3985
a 1596 1595 20.4761
a 1597 1622 103.8826
a 1597 1593 4.7484
a 1597 1598 20.5157
a 1598 1599 10.8598
a 1598 1594 21.9781
a 1598 1623 15.6445
a 1598 1597 214.309
a 1599 1598 10.8598
a 1600 1608 4.5526
a 1600 1624 5.2078
a 1600 1611 19.3946
a 1600 4093 44.2277
a 1601 1583 5.4151
a 1601 1606 4.7585
a 1601 1576 20.4358
a 1602 1604 4.9104
a 1602 1634 17.7574
a 1603 1604 5.6952
a 1603 1577 15.7865
a 1603 1605 9.4666
a 1604 1603 5.6952
a 1604 1602 4.9104
a 1604 1578 11.1751
a 1604 9982 18.2693
a 1605 9982 10.5696
a 1605 1603 9.4666
a 1606 1601 4.7585
a 1606 1577 19.9145
a 1606 1581 5.0342
a 1607 13529 8.123
a 1607 1609 4.6051
a 1607 1617 5.3899
a 1608 290 5.4353
a 1608 1600 224.2033
a 1608 1610 19.3968
a 1609 1621 4.351
a 1609 1607 111.9942
a 1609 1610 17.6911
a 1610 1611 4.5108
a 1610 12556 5.3885
a 1610 1609 17.6911
a 1610 1608 19.3968
a 1611 13529 8.4715
a 1611 1625 5.3755
a 1611 1610 4.5108
a 1611 1600 19.3946
a 1612 1616 36.5956
a 1612 1625 5.4511
a 1612 1627 4.8679
a 1612 2775 19.3932
a 1613 1631 5.0458
a 1613 2764 15.5153
a 1613 1574 19.381
a 1613 1614 5.639
a 1614 1401 16.1252
a 1614 1613 5.639
a 1614 1216 19.3428
a 1614 1615 752.748
a 1615 2764 5.5908
a 1615 8144 5.7823
a 1615 1215 10.2794
a 1615 1614 15.6038
a 1616 1612 15.5477
a 1616 1617 5.5793
a 1616 1628 47.805
a 1617 1616 5.5793
a 1617 1607 5.3899
a 1618 2074 1.4486
a 1618 1621 1.7266
a 1618 12291 20.2457
a 1619 2073 12.3962
a 1619 2074 5.3957
a 1619 1694 7.8062
a 1619 1620 5.4338
a 1620 2076 10.3867
a 1620 2079 18.846
a 1620 1619 5.4338
a 1621 1618 1.7266
a 1621 1609 4.351
a 1621 12234 21.1709
a 1622 4095 5.3561
a 1622 1597 4.9543
a 1622 1623 20.5402
a 1623 1598 4.9154
a 1623 4094 5.0954
a 1623 4093 15.7046
a 1623 1622 20.5402
a 1624 1600 5.2078
a 1624 2775 5.2625
a 1624 1625 19.3932
a 1625 1612 5.4511
a 1625 1611 5.3755
a 1625 1617 15.6895
a 1625 1624 19.3932
a 1626 2775 5.0962
a 1626 13517 17.4902
a 1626 1629 10.4861
a 1627 1633 5.3366
a 1627 1612 4.8679
a 1627 1628 15.4001
a 1627 13517 1.8972
a 1628 1616 5.1696
a 1628 1632 4.932
a 1628 1627 15.4001
a 1629 1574 5.0105
a 1629 1631 19.3838
a 1629 1626 10.4861
a 1630 2764 5.1732
a 1630 1631 15.4354
a 1630 1632 4.8982
a 1631 1613 5.0458
a 1631 1633 4.986
a 1631 1630 15.4354
a 1631 1629 19.3838
a 1632 1633 15.359
a 1632 1628 4.932
a 1632 1630 4.8982
a 1633 1632 15.359
a 1633 1631 4.986
a 1633 1627 5.3366
a 1634 1580 4.901
a 1634 9084 1.5638
a 1635 1212 2.6986
a 1635 8514 6.0638
a 1636 9355 5.4785
a 1636 1392 9.4219
a 1636 1212 2.5013
a 1636 8513 259.2457
a 1637 9117 3.4546
a 1637 7465 3.1428
a 1638 1650 35.5352
a 1638 1649 45.3882
a 1638 1648 3.9499
a 1639 1645 3.1486
a 1639 1646 4.0327
a 1639 1100 5.5721
a 1641 1640 3.7519
a 1642 8654 3.3782
a 1642 10002 4.1249
a 1643 1644 5.7398
a 1644 1642 7.1856
a 1645 1639 3.1486
a 1645 1643 320.7101
a 1646 1639 41.0398
a 1646 1647 3.5698
a 1647 1646 11.1969
a 1647 1648 27.8322
a 1648 1647 3.7829
a 1648 1638 45.593
a 1649 1638 5.2834
a 1649 1100 14.4338
a 1650 1638 3.8102
a 1650 1651 3.8866
a 1651 1650 3.8866
a 1651 9117 3.7267
a 1652 1337 2.7511
a 1652 1380 2.8822
a 1652 1653 93.5738
a 1653 1652 8.946
a 1653 1145 21.4477
a 1653 1332 3.2278
a 1654 11406 1.0951
a 1654 2778 14.7888
a 1655 1856 4.0846
a 1655 9083 6.4483
a 1656 1663 13.6105
a 1656 8416 2.7281
a 1656 729 335.9154
a 1657 8213 1.2024
a 1657 12917 1.7424
a 1657 1665 23.6261
a 1658 1661 1.0454
a 1658 12915 21.8506
a 1658 1656 30.0989
a 1659 10826 1.3558
a 1659 12249 4.1242
a 1659 5329 2.1787
a 1660 9483 2.5546
a 1660 5160 0.7733
a 1661 1658 13.485
a 1661 7879 2.7612
a 1661 1662 26.874
a 1662 267 1.057
a 1662 9451 30.8678
a 1662 7881 2.8051
a 1663 1656 1.0231
a 1663 11310 2.641
a 1663 1661 30.1831
a 1664 1665 9.8329
a 1664 8213 23.5843
a 1665 729 1.0692
a 1665 1663 54.9627
a 1666 8708 1.1016
a 1666 4766 4.716
a 1666 9452 17.2786
a 1667 9816 3.0113
a 1668 1669 5.5476
a 1668 12527 35.1515
a 1668 1717 50.7024
a 1669 3209 3.7339
a 1669 1713 5.22
a 1669 1668 5.5476
a 1669 13189 18.9101
a 1670 1687 3.5762
a 1670 1699 7.4693
a 1670 1713 13.3654
a 1671 3341 11.556
a 1671 1677 3.3775
a 1671 1693 3.4589
a 1671 1699 15.6341
a 1672 12280 1.6978
a 1672 3340 2.8267
a 1672 3333 9.1555
a 1673 3209 5.6873
a 1673 1674 7.0013
a 1673 3025 4.9846
a 1674 1675 29.7966
a 1674 1673 7.0013
a 1674 3209 5.6009
a 1675 1679 3.1075
a 1675 1676 18.445
a 1675 1674 3.3206
a 1675 1713 4.0212
a 1676 1699 3.384
a 1676 1681 3.2659
a 1676 1677 13.7736
a 1676 1675 236.9971
a 1677 1676 13.7736
a 1677 1682 9.6787
a 1677 1671 3.3775
a 1678 1714 6.948
a 1678 1679 7.4153
a 1678 3025 4.5086
a 1679 1675 3.1075
a 1679 1714 5.1883
a 1679 3208 66.1035
a 1679 1678 7.4153
a 1680 2982 8.2354
a 1680 3207 3.2904
a 1680 3208 3.3293
a 1681 1676 3.2659
a 1681 1697 4.8506
a 1681 3207 3.7584
a 1682 1681 11.8015
a 1682 1677 3.5698
a 1683 1684 4.1573
a 1683 1713 187.4544
a 1683 1712 14.5829
a 1684 1711 12.6727
a 1684 1685 3.487
a 1684 1683 4.1573
a 1685 1710 117.9207
a 1685 1686 3.4056
a 1685 1684 3.487
a 1686 1687 3.4682
a 1686 1685 3.4056
a 1686 1709 10.6272
a 1687 1670 3.5762
a 1687 1686 3.4682
a 1687 1708 10.1513
a 1687 1688 3.888
a 1688 1689 3.5633
a 1688 1707 266.3078
a 1688 1687 3.888
a 1689 1688 3.5633
a 1689 1700 10.134
a 1689 1699 3.5186
a 1689 1690 28.9661
a 1690 1706 10.2528
a 1690 1691 3.4272
a 1690 1689 3.191
a 1691 1705 10.5264
a 1691 1692 3.631
a 1691 1690 3.4272
a 1692 1704 3.6842
a 1692 1691 3.631
a 1693 3343 9.1037
a 1693 1704 3.2652
a 1693 1671 3.4589
a 1694 1703 7.0272
a 1694 1619 7.8062
a 1694 285 9.4414
a 1695 1682 3.0456
a 1695 11874 3.3595
a 1696 1695 1.4508
a 1696 2021 10.8086
a 1697 1681 4.8506
a 1697 1698 16.2062
a 1697 1696 8.2274
a 1698 3207 7.3066
a 1698 1697 4.3733
a 1698 2982 3.5654
a 1699 1676 3.384
a 1699 1689 3.5186
a 1699 1670 7.4693
a 1699 1671 15.6341
a 1700 1706 3.5258
a 1700 1689 10.134
a 1700 1707 15.7167
a 1701 1705 12.7337
a 1701 1692 344.8234
a 1702 1703 3.9658
a 1702 1701 3.317
a 1703 1694 7.0272
a 1703 1702 3.9658
a 1704 1693 3.2652
a 1704 1692 3.6842
a 1704 1702 11.0434
a 1705 1701 3.6576
a 1705 1706 3.1658
a 1705 1691 10.5264
a 1706 1705 3.1658
a 1706 1700 193.9313
a 1706 1690 10.2528
a 1707 2020 1.2542
a 1707 1688 10.0404
a 1707 1700 3.5719
a 1708 2020 2.5135
a 1708 1709 3.3696
a 1708 1687 10.1513
a 1709 1708 3.3696
a 1709 1710 3.3732
a 1709 1686 10.6272
a 1710 1709 3.3732
a 1710 1711 3.4639
a 1710 1685 11.4761
a 1711 1710 3.4639
a 1711 1712 3.2213
a 1711 1684 12.6727
a 1712 1711 3.2213
a 1712 13189 2.0858
a 1712 1683 14.5829
a 1713 1670 13.3654
a 1713 1669 5.22
a 1713 1675 4.0212
a 1713 1683 2.988
a 1714 1679 5.1883
a 1714 2903 3.191
a 1714 1678 6.948
a 1715 7732 28.9505
a 1715 293 1.8266
a 1715 1721 6.8191
a 1716 1747 10.5062
a 1717 1718 7.8595
a 1717 12363 7.2331
a 1717 1668 13.0118
a 1718 1745 19.6394
a 1718 1719 6.0422
a 1718 1717 7.8595
a 1719 1744 13.4014
a 1719 1720 5.5368
a 1719 1718 6.0422
a 1720 1743 454.0906
a 1720 1721 8.7113
a 1720 1719 5.5368
a 1721 1747 8.3146
a 1721 1715 6.8191
a 1721 1742 5.485
a 1721 1720 8.7113
a 1722 1732 54.1852
a 1722 1738 6.0588
a 1722 12207 403.1694
a 1722 1723 12.4884
a 1723 1734 10.332
a 1723 1728 6.7968
a 1723 1722 161.2836
a 1724 1726 18.2462
a 1724 1728 6.7687
a 1724 1725 7.6291
a 1725 284 22.0255
a 1725 295 1.319
a 1725 1724 7.6291
a 1726 1724 18.2462
a 1726 1729 6.6895
a 1726 12456 26.7005
a 1727 12527 0.5472
a 1727 3158 133.5472
a 1727 1746 3.7613
a 1728 1729 18.5875
a 1728 1724 6.7687
a 1728 1723 6.7968
a 1729 1728 18.5875
a 1729 1726 6.6895
a 1729 1730 6.8479
a 1730 1734 8.2325
a 1730 8162 3.9118
a 1730 1729 17.9998
a 1730 1735 6.2287
a 1731 1732 12.1464
a 1731 1736 5.5166
a 1731 1735 6.8263
a 1731 1737 6.8306
a 1732 1722 11.407
a 1732 1731 12.1464
a 1732 1733 6.071
a 1733 1734 6.0574
a 1733 1732 6.071
a 1733 1735 9.8798
a 1734 1723 10.332
a 1734 1730 8.2325
a 1734 1733 6.0574
a 1735 1733 9.8798
a 1735 1730 6.2287
a 1735 1731 53.5693
a 1736 1731 5.5166
a 1737 1738 18.0972
a 1737 1731 6.8306
a 1737 1739 6.894
a 1738 1737 18.0972
a 1738 1722 6.0588
a 1738 1740 5.5426
a 1739 1740 12.109
a 1739 1737 19.7712
a 1739 1741 5.6232
a 1740 1739 12.109
a 1740 1738 5.5426
a 1740 1742 6.0559
a 1741 1742 127.4873
a 1741 1747 5.495
a 1741 1739 5.6232
a 1742 1741 25.763
a 1742 1740 6.0559
a 1742 1721 5.485
a 1743 1720 8.9395
a 1743 1747 6.3778
a 1743 13527 5.7996
a 1744 13527 0.2542
a 1744 1719 13.4014
a 1744 1745 6.0372
a 1745 1718 206.2747
a 1745 1746 2.5337
a 1745 1744 6.0372
a 1746 1745 2.5337
a 1746 1727 3.7613
a 1747 1716 3.4884
a 1747 1721 8.3146
a 1747 1741 5.495
a 1747 1743 191.0638
a 1748 2174 11.8368
a 1748 2172 2.9232
a 1749 1761 6.66
a 1749 1564 10.867
a 1750 279 8.7286
a 1750 1766 22.4395
a 1750 7099 8.4816
a 1750 1768 7.763
a 1751 1762 105.4863
a 1751 1764 19.2791
a 1751 1758 14.1912
a 1752 1753 5.9911
a 1752 13412 6.529
a 1752 1762 4.6944
a 1752 1770 10.134
a 1753 1752 191.6065
a 1753 1772 5.3662
a 1753 1754 20.8001
a 1754 1753 20.8001
a 1754 281 9.1829
a 1754 1755 7.4462
a 1755 1772 19.0814
a 1755 1756 153.8018
a 1755 1754 7.4462
a 1756 1771 19.5739
a 1756 1773 25.8077
a 1756 1755 5.9105
a 1757 1770 6.4282
a 1757 1763 4.8046
a 1757 9996 2.8915
a 1757 1773 113.1096
a 1758 1751 14.1912
a 1758 1763 203.819
a 1758 1759 4.7513
a 1759 3042 7.4239
a 1759 1760 12.3905
a 1759 1758 4.7513
a 1760 3085 4.0442
a 1760 1769 15.1898
a 1760 1759 12.3905
a 1761 7099 5.1811
a 1761 1749 6.66
a 1761 7100 22.2746
a 1762 1751 4.675
a 1762 1752 66.5995
a 1762 1763 15.2467
a 1763 1758 17.6355
a 1763 1762 15.2467
a 1763 1757 4.8046
a 1764 1751 18.2269
a 1764 1766 14.8586
a 1764 3042 5.1566
a 1764 13411 5.6743
a 1765 13411 0.8654
a 1765 1499 1.2326
a 1765 280 15.0955
a 1766 1764 14.8586
a 1766 1767 6.4721
a 1766 3085 288.2135
a 1766 1750 22.4395
a 1767 1766 6.4721
a 1767 1500 1.2607
a 1767 1765 15.6442
a 1768 12453 0.8201
a 1768 1769 7.9985
a 1768 1750 7.763
a 1769 1768 7.9985
a 1769 7100 5.3518
a 1769 1760 333.7023
a 1770 1757 48.8054
a 1770 1752 10.134
a 1770 1771 41.3146
a 1771 1773 6.5664
a 1771 1772 5.49
a 1771 1756 19.5739
a 1771 1770 8.8942
a 1772 1771 5.49
a 1772 1753 5.3662
a 1772 1755 19.0814
a 1773 1771 6.5664
a 1773 1757 10.5437
a 1773 1756 25.8077
a 1774 1775 2.9736
a 1774 13612 2.5805
a 1775 496 3.9046
a 1776 3037 3.6547
a 1776 11085 0.7078
a 1777 578 0.6646
a 1777 3005 13.8024
a 1777 3322 568.0472
a 1778 12282 0.8464
a 1779 1118 12.0449
a 1779 1784 1.9656
a 1779 1786 12.2825
a 1780 1779 5.3136
a 1780 1787 64.9528
a 1780 1781 6.8335
a 1780 1461 10.5516
a 1781 1788 12.0535
a 1781 1782 6.8227
a 1781 1470 10.5516
a 1781 1780 6.8335
a 1782 11551 3.8894
a 1782 13468 3.4517
a 1782 1781 6.8227
a 1782 1783 6.9545
a 1783 13464 8.4766
a 1783 1479 10.3435
a 1783 1782 6.9545
a 1783 13466 8.1785
a 1784 1785 11.6014
a 1784 1373 3.2054
a 1785 1784 11.6014
a 1785 1520 11.3774
a 1785 4096 3.4315
a 1786 1779 12.2825
a 1786 1116 12.0334
a 1786 1787 5.3035
a 1787 1788 6.8342
a 1787 1786 5.3035
a 1787 1780 64.3497
a 1787 2456 12.0478
a 1788 1781 12.0535
a 1788 1789 6.8112
a 1788 1469 12.0852
a 1788 1787 6.8342
a 1789 13470 4.5022
a 1789 1788 6.8112
a 1789 11551 8.1943
a 1789 1790 7.092
a 1790 13464 3.7368
a 1790 3176 6.9106
a 1790 1117 12.132
a 1790 1789 7.092
a 1791 1792 11.6431
a 1791 1344 2.5474
a 1792 1791 11.6431
a 1792 1793 11.6078
a 1792 1795 2.628
a 1792 1364 2.8555
a 1793 1792 11.6078
a 1794 1795 11.6496
a 1794 11357 1.8763
a 1795 1794 11.6496
a 1795 1798 2.8303
a 1795 1792 28.3549
a 1795 1796 11.6093
a 1796 1793 2.911
a 1796 1795 11.6093
a 1797 1798 11.651
a 1797 1345 1.5012
a 1798 1799 11.6158
a 1798 1797 11.651
a 1798 1362 2.7173
a 1798 1795 2.8303
a 1799 1798 140.9647
a 1799 1796 2.6424
a 1800 13105 0.2218
a 1800 7021 5.4662
a 1800 7037 1.5329
a 1801 2096 6.6226
a 1801 7021 3.3084
a 1801 2084 3.8542
a 1802 7394 641.5799
a 1802 2589 3.7814
a 1803 2196 5.4389
a 1803 1876 3.93
a 1803 1802 8.3902
a 1804 2197 5.7118
a 1804 1875 0.8935
a 1804 7845 10.193
a 1805 7018 6.3907
a 1805 3738 3.0074
a 1805 2196 91.9139
a 1806 1809 4.2797
a 1806 2597 3.973
a 1806 2599 6.3698
a 1806 3662 4.2386
a 1807 2197 4.397
a 1807 1808 3.9571
a 1807 1811 144.0905
a 1807 2740 13.5173
a 1808 1807 3.9571
a 1808 3881 3.9888
a 1808 2605 10.1851
a 1808 3821 10.1261
a 1809 2190 4.001
a 1809 1806 4.2797
a 1809 9824 12.5381
a 1809 3623 3.996
a 1810 3689 48.2794
a 1810 3626 3.3646
a 1810 1811 3.2306
a 1811 4080 39.2313
a 1811 1810 76.3324
a 1811 1807 4.2077
a 1812 2011 6.1502
a 1812 1814 3.983
a 1812 2014 6.0876
a 1813 1824 5.2049
a 1813 1842 18.7934
a 1813 1841 4.6894
a 1814 1834 6.4166
a 1814 1812 3.983
a 1814 1818 6.1416
a 1815 1837 5.4626
a 1815 1834 5.2423
a 1815 1836 16.6846
a 1816 1818 316.074
a 1816 13077 3.9643
a 1816 1837 6.6384
a 1817 13078 0.6192
a 1817 1839 6.3043
a 1817 7621 5.0868
a 1818 1814 24.8524
a 1818 1816 27.3924
a 1818 13078 39.0434
a 1819 1822 55.887
a 1819 10106 5.2639
a 1819 1835 9.7898
a 1819 1853 17.4931
a 1820 1839 125.3522
a 1820 1821 5.2466
a 1820 1838 13.9781
a 1821 1820 5.2466
a 1821 1824 7.7184
a 1821 2478 14.0443
a 1822 1823 5.1214
a 1822 1819 5.4835
a 1822 2478 20.484
a 1823 1847 85.965
a 1823 1822 15.1961
a 1823 1826 5.4605
a 1824 1821 7.7184
a 1824 9352 2.9534
a 1824 1813 33.9959
a 1824 1827 16.4952
a 1825 1833 2.5682
a 1826 1827 13.4935
a 1826 1823 5.4605
a 1826 7293 5.5894
a 1827 1826 276.68
a 1827 1828 5.585
a 1827 1824 16.4952
a 1828 7852 71.6938
a 1828 1827 5.585
a 1828 7293 13.7628
a 1829 1832 53.3148
a 1829 7852 5.2114
a 1829 1830 70.6572
a 1830 7853 5.1883
a 1830 1833 5.1523
a 1830 1831 5.4756
a 1830 1829 15.0156
a 1831 1846 12.9781
a 1831 1847 9.5839
a 1831 1830 62.7884
a 1832 7851 2.2932
a 1832 1829 5.2747
a 1832 1833 15.5189
a 1833 1830 5.1523
a 1833 1825 2.5682
a 1833 1832 15.5189
a 1834 1815 5.2423
a 1834 1814 6.4166
a 1834 1835 161.5482
a 1835 1836 5.346
a 1835 1819 103.619
a 1835 1834 18.5256
a 1836 1838 5.5123
a 1836 1835 5.346
a 1836 1815 154.3307
a 1837 1815 5.4626
a 1837 1840 7.5492
a 1837 1816 6.6384
a 1838 1820 13.9781
a 1838 1836 5.5123
a 1838 2478 5.3561
a 1838 1840 7.5614
a 1839 1817 6.3043
a 1839 1820 6.1178
a 1839 1840 13.955
a 1840 1838 7.5614
a 1840 1837 41.0074
a 1840 1839 13.955
a 1841 1843 1.8806
a 1841 1842 24.061
a 1841 1813 4.6894
a 1842 1841 24.061
a 1842 1813 18.7934
a 1842 1843 11.3926
a 1843 1841 1.8806
a 1843 1842 11.3926
a 1843 13577 3.389
a 1844 2008 6.6406
a 1844 1853 22.0544
a 1844 2006 16.4174
a 1845 1850 2.0599
a 1845 2010 17.6494
a 1845 1851 5.279
a 1846 7308 1.4738
a 1846 1831 19.9052
a 1846 1850 37.895
a 1847 1831 9.5839
a 1847 1823 6.2993
a 1847 7309 5.4842
a 1848 1849 5.3978
a 1848 7309 11.9131
a 1848 7311 4.4791
a 1849 1848 5.3978
a 1849 7312 4.055
a 1849 1850 8.7869
a 1850 1845 2.0599
a 1850 1846 37.895
a 1850 1849 8.7869
a 1851 2009 17.2411
a 1851 1845 255.7513
a 1851 1852 5.3892
a 1852 2008 16.092
a 1852 1853 26.1554
a 1852 1851 5.3892
a 1853 1844 5.2301
a 1853 1819 17.4931
a 1853 1854 7.2605
a 1853 1852 26.1554
a 1854 1855 9.8129
a 1854 1855 1025.8493
a 1854 1853 211.8306
a 1855 1854 9.8129
a 1855 1854 15.228
a 1855 10106 161.7424
a 1856 2801 3.5496
a 1856 1655 4.0846
a 1856 1857 17.8485
a 1856 2802 6.8098
a 1857 9745 0.5573
a 1857 1856 18.0607
a 1857 2778 4.1004
a 1858 287 308.6046
a 1858 9078 1.1275
a 1859 7830 2.3544
a 1859 166 1.1894
a 1860 7521 9.6718
a 1860 9657 11.8138
a 1861 3195 3.3725
a 1861 3542 8.1187
a 1861 12820 5.4641
a 1862 12819 1.7366
a 1862 11160 110.6936
a 1862 1537 23.2481
a 1862 7736 23.5346
a 1863 9674 1.1167
a 1863 10052 2.2399
a 1864 9073 3.7951
a 1864 3030 6.3482
a 1865 13554 3.8887
a 1865 8975 2.7734
a 1866 9940 97.8831
a 1866 1867 3.5532
a 1866 10298 5.1545
a 1867 11044 3.5784
a 1867 1866 3.5532
a 1867 9447 3.8923
a 1868 2937 4.1465
a 1868 2944 3.8052
a 1868 1572 5.7298
a 1869 1866 3.8398
a 1870 2944 5.7326
a 1870 1572 3.6828
a 1871 8667 3.0838
a 1871 1872 6.0358
a 1872 1868 11.3256
a 1872 1873 7.5427
a 1873 10129 6.4037
a 1874 10128 2.6208
a 1874 10236 13.3178
a 1875 1804 9.0614
a 1875 8671 13.3978
a 1876 1803 1.0166
a 1876 7846 12.2472
a 1877 1913 167.5153
a 1877 1908 32.8982
a 1877 1906 10.3702
a 1878 6877 4.0982
a 1878 1879 29.6741
a 1878 1895 7.8142
a 1879 1894 5.989
a 1879 1885 5.8572
a 1879 1878 29.6741
a 1880 1892 5.9141
a 1880 12848 2.7691
a 1880 1885 29.7972
a 1880 1881 1113.9536
a 1881 1889 64.4337
a 1881 12109 16.6486
a 1881 1880 19.0526
a 1882 1898 71.3824
a 1882 1900 8.015
a 1882 1884 5.9378
a 1883 1884 11.1593
a 1883 1891 139.3186
a 1883 1904 15.1574
a 1884 1893 16.5953
a 1884 1883 11.1593
a 1884 1882 5.9378
a 1885 1893 5.9479
a 1885 1880 29.7972
a 1885 1879 71.025
a 1886 1887 6.7846
a 1886 6963 2.5438
a 1887 1888 6.3583
a 1887 1886 6.7846
a 1887 2452 206.7605
a 1888 1889 5.8738
a 1888 1887 6.3583
a 1888 1909 15.4375
a 1889 1890 5.7312
a 1889 1888 5.8738
a 1889 1881 6.9703
a 1889 1912 74.4373
a 1890 1891 178.1538
a 1890 1889 5.7312
a 1890 1905 76.353
a 1891 1890 5.9249
a 1891 1892 9.918
a 1891 1883 5.8212
a 1892 1880 5.9141
a 1892 1893 20.7346
a 1892 1891 111.4445
a 1893 1885 131.4556
a 1893 1884 16.5953
a 1893 1892 20.7346
a 1894 1897 5.8298
a 1894 1879 5.989
a 1894 1895 29.7583
a 1895 1896 6.1258
a 1895 1894 29.7583
a 1895 1878 71.2904
a 1896 1895 6.1258
a 1896 1899 5.5937
a 1896 1897 28.6841
a 1897 1898 5.9861
a 1897 1894 5.8298
a 1897 1896 28.6841
a 1898 1882 5.6326
a 1898 1897 5.9861
a 1898 1899 182.6612
a 1899 1896 5.5937
a 1899 1901 65.3865
a 1899 1898 27.6955
a 1900 1903 5.7557
a 1900 1901 194.0185
a 1900 1882 8.015
a 1901 1899 6.0271
a 1901 1908 6.2762
a 1901 1900 18.9547
a 1902 1912 5.8853
a 1902 1911 5.9234
a 1902 1909 11.0765
a 1903 1900 5.7557
a 1903 1904 6.9458
a 1903 1907 6.0192
a 1904 1903 6.9458
a 1904 1905 5.8954
a 1904 1883 38.4329
a 1905 1904 5.8954
a 1905 1912 5.9962
a 1905 1890 54.1987
a 1906 1911 6.053
a 1906 2452 17.0482
a 1906 1877 10.3702
a 1907 1910 6.0898
a 1907 1903 6.0192
a 1907 1911 25.979
a 1908 1901 195.2781
a 1908 1910 117.2258
a 1908 1877 32.8982
a 1908 6882 3.6792
a 1909 1902 11.0765
a 1909 2452 5.8795
a 1909 1888 15.4375
a 1910 1907 6.0898
a 1910 1908 73.4834
a 1910 1911 332.9643
a 1911 1906 6.053
a 1911 1902 243.5374
a 1911 1907 25.979
a 1911 1910 32.4425
a 1912 1905 180.5845
a 1912 1902 5.8853
a 1912 1889 24.0818
a 1913 1877 5.1854
a 1913 13095 3.0319
a 1914 6963 0.9742
a 1914 1915 23.0335
a 1914 1935 18.1346
a 1915 10818 34.4887
a 1915 12847 20.1679
a 1915 1914 23.0335
a 1916 12511 21.8455
a 1916 12849 2.4156
a 1916 1926 4.3891
a 1917 1919 11.7274
a 1917 6977 29.4403
a 1917 8549 27.7236
a 1918 1919 4.1702
a 1918 1920 17.9525
a 1918 1921 5.9659
a 1919 1917 3.5878
a 1919 1918 4.1702
a 1919 1920 19.993
a 1920 1919 742.8538
a 1920 1918 17.9525
a 1920 8549 6.6197
a 1921 6976 5.3914
a 1921 7672 1.2002
a 1921 1918 5.9659
a 1922 1923 13.8737
a 1922 8549 5.0976
a 1922 1929 23.9206
a 1923 1924 28.733
a 1923 1922 13.8737
a 1923 1930 4.135
a 1924 1928 56.1012
a 1924 6978 3.9247
a 1924 1923 28.733
a 1925 12511 0.851
a 1925 1935 11.6791
a 1926 1948 22.2228
a 1926 1927 4.3956
a 1926 1916 4.3891
a 1927 1929 4.1342
a 1927 1926 4.3956
a 1927 1928 21.7037
a 1928 1924 4.1335
a 1928 1948 4.3308
a 1928 1927 21.7037
a 1929 1934 4.0968
a 1929 1927 4.1342
a 1929 1922 23.9206
a 1930 1931 22.0284
a 1930 1923 4.135
a 1930 6978 518.2926
a 1930 1933 4.428
a 1931 1932 3.8772
a 1931 6978 5.2582
a 1931 1930 22.0284
a 1932 1931 3.8772
a 1932 1934 4.0471
a 1932 1933 221.0842
a 1933 1932 21.7519
a 1933 1930 4.428
a 1933 1934 24.6895
a 1934 1932 4.0471
a 1934 1929 17.6946
a 1934 1933 24.6895
a 1935 1925 160.0949
a 1935 1914 18.1346
a 1935 1936 10.5278
a 1936 1990 5.2481
a 1936 1935 10.5278
a 1937 1989 4.9291
a 1937 1996 32.3961
a 1937 1992 5.4461
a 1937 1952 14.0515
a 1938 10953 2.4343
a 1938 1995 7.0646
a 1938 1981 6.4022
a 1938 1994 7.9747
a 1939 1978 16.411
a 1939 1980 5.5642
a 1939 1977 4.8766
a 1940 1975 16.0747
a 1940 7666 4.7189
a 1940 1977 4.963
a 1941 7306 1.129
a 1941 67 22.883
a 1941 2015 3.348
a 1942 1936 14.3172
a 1942 1991 6.048
a 1943 1952 5.3237
a 1943 1996 14.3791
a 1943 1944 5.6923
a 1944 1945 2.3652
a 1944 1943 5.6923
a 1944 7664 12.4445
a 1945 1944 2.3652
a 1945 1946 1.8072
a 1945 1995 12.3314
a 1946 1945 1.8072
a 1946 1994 8.5368
a 1946 1947 2.201
a 1947 1982 7.8336
a 1948 13094 0.7459
a 1948 7804 18.7568
a 1948 1926 22.2228
a 1948 1928 4.3308
a 1949 7804 5.2272
a 1950 1987 5.7305
a 1950 7666 15.1056
a 1950 1975 4.3279
a 1951 1980 15.9026
a 1951 1986 29.5438
a 1952 1988 5.8435
a 1952 1943 5.3237
a 1952 1937 14.0515
a 1952 2000 6.0055
a 1953 1992 2.5092
a 1954 1966 4.0666
a 1954 7668 1.7251
a 1954 12491 3.8484
a 1954 1968 18.2484
a 1955 1962 63.6395
a 1955 7669 1.3932
a 1955 1969 4.0298
a 1956 1987 5.801
a 1956 1984 17.9006
a 1956 12492 2.2608
a 1957 2451 7.4606
a 1957 1964 4.0435
a 1957 1958 16.5967
a 1958 8088 8.2933
a 1958 2451 12.8448
a 1958 1959 135.7773
a 1958 1957 16.5967
a 1959 1967 80.001
a 1959 2451 50.6688
a 1959 1958 85.7965
a 1960 1967 1.3442
a 1960 1972 3.7274
a 1960 1961 9.9094
a 1961 1962 4.0169
a 1961 1973 3.7793
a 1961 1960 9.9094
a 1962 1955 13.5439
a 1962 1961 4.0169
a 1963 1970 5.4324
a 1963 1965 5.7586
a 1963 1967 4.2271
a 1964 1957 4.0435
a 1964 1966 4.9831
a 1964 1963 15.881
a 1965 1966 18.2772
a 1965 1968 4.3891
a 1965 1963 5.7586
a 1966 1954 4.0666
a 1966 1964 21.2056
a 1967 1960 1.3442
a 1967 1959 2.4307
a 1967 1963 4.2271
a 1968 1969 4.5187
a 1968 1965 4.3891
a 1969 1968 4.5187
a 1969 1970 11.2234
a 1969 1955 4.0298
a 1970 1962 5.2279
a 1970 1969 11.2234
a 1971 7670 4.693
a 1971 7671 4.626
a 1971 1974 11.6532
a 1972 1974 5.7168
a 1972 1960 3.7274
a 1972 7671 11.2212
a 1973 1974 4.0219
a 1973 1961 3.7793
a 1973 7670 11.5042
a 1974 1973 15.0974
a 1974 1972 5.7168
a 1974 1971 11.6532
a 1975 1940 16.0747
a 1975 1976 4.5065
a 1976 1977 86.1807
a 1976 1978 4.4086
a 1977 1976 16.6205
a 1977 1939 4.8766
a 1977 1940 4.963
a 1978 1939 16.411
a 1978 1951 19.5923
a 1979 12841 0.4399
a 1979 1985 12.1277
a 1979 12840 2.9196
a 1980 1951 40.3134
a 1980 1981 72.9919
a 1980 1939 5.5642
a 1981 1982 188.9818
a 1981 1938 6.4022
a 1981 1980 6.0624
a 1982 1981 14.6549
a 1982 1951 5.9818
a 1982 7665 5.9609
a 1983 1984 12.0787
a 1983 1986 15.0566
a 1983 11105 5.5498
a 1984 1986 5.783
a 1984 12840 3.7548
a 1984 1983 12.0787
a 1984 1956 17.9006
a 1985 11106 4.6566
a 1985 1979 12.1277
a 1985 67 13.8737
a 1986 1951 5.7492
a 1986 1984 5.783
a 1986 1987 18.1087
a 1986 1983 670.8722
a 1987 1956 5.801
a 1987 1950 5.7305
a 1987 1986 18.1087
a 1988 1991 5.8399
a 1988 1952 5.8435
a 1988 1989 13.8348
a 1989 1988 13.8348
a 1989 1990 4.9788
a 1989 1937 4.9291
a 1990 1936 5.2481
a 1990 1989 16.2065
a 1990 1991 14.1242
a 1991 1988 5.8399
a 1991 1990 191.058
a 1991 1942 43.9535
a 1991 10954 7.2994
a 1992 1953 2.5092
a 1992 1937 5.4461
a 1992 12117 62.0024
a 1992 7805 115.2776
a 1993 10953 5.4554
a 1994 1947 2.2003
a 1994 1946 2.6561
a 1994 1938 7.9747
a 1995 1996 4.7362
a 1995 1938 7.0646
a 1995 1945 142.6804
a 1996 1937 4.3711
a 1996 1995 4.7362
a 1996 1943 14.3791
a 1997 2000 59.6072
a 1997 12490 3.3574
a 1997 1998 6.4541
a 1997 1943 14.2596
a 1998 1999 15.102
a 1998 1997 6.4541
a 1998 2000 11.7634
a 1999 1942 16.6939
a 1999 1998 416.1084
a 2000 1952 6.0055
a 2000 1997 5.8853
a 2000 1998 11.7634
a 2001 12166 11.6698
a 2001 7364 5.333
a 2002 10095 10.1743
a 2003 547 4.2811
a 2003 546 30.1969
a 2003 2005 12.096
a 2003 7169 9.1109
a 2004 1247 4.5065
a 2005 2003 12.096
a 2005 1282 3.4697
a 2005 8909 2.5481
a 2006 12568 6.0768
a 2006 1844 16.4174
a 2006 12033 6.5966
a 2007 2010 16.9754
a 2007 12568 9.913
a 2007 2009 20.3162
a 2008 1844 6.6406
a 2008 1852 16.092
a 2008 2009 56.7371
a 2009 1851 17.2411
a 2009 2010 51.79
a 2009 2008 33.3473
a 2009 2007 84.0048
a 2010 1845 17.6494
a 2010 2007 16.9754
a 2010 2009 5.2697
a 2011 1812 48.4499
a 2011 7292 4.505
a 2011 2012 19.9546
a 2012 7329 44.6791
a 2012 2011 3.9002
a 2012 2013 24.8069
a 2013 7331 1.795
a 2013 7329 12.5158
a 2013 2012 24.8069
a 2014 10106 11.219
a 2014 10106 18.1692
a 2014 1812 6.0876
a 2015 7337 17.8279
a 2015 1941 3.348
a 2016 2017 8.5874
a 2016 8946 13.2012
a 2017 2016 8.5874
a 2017 167 4.7945
a 2017 2395 17.6515
a 2018 11358 4.405
a 2018 11363 2.5186
a 2018 2393 14.8507
a 2018 1501 7.4246
a 2019 2020 59.41
a 2019 12234 1.4076
a 2019 285 12.5863
a 2020 1707 28.1556
a 2020 1708 2.5135
a 2020 2019 6.4678
a 2021 2024 2.6964
a 2021 2059 1.5574
a 2022 2031 3.0355
a 2022 920 5.1372
a 2023 13524 1.1434
a 2023 11881 9.2261
a 2023 2022 8.5644
a 2024 2021 2.6964
a 2024 2062 8.0424
a 2024 2025 10.1844
a 2025 2041 5.3093
a 2025 2062 5.9314
a 2025 2024 10.1844
a 2026 2065 9.81
a 2026 2027 49.6421
a 2026 3337 4.8773
a 2027 2064 15.0466
a 2027 2026 5.5598
a 2027 2063 8.6566
a 2028 2062 10.6538
a 2028 2042 7.5809
a 2028 2061 25.3203
a 2029 2034 9.7841
a 2029 2039 4.3855
a 2029 2030 8.5486
a 2030 2052 4.6541
a 2030 11881 0.3247
a 2030 2029 8.5486
a 2030 2032 37.2535
a 2031 2022 3.0355
a 2031 11881 25.442
a 2031 12026 60.692
a 2032 2033 205.2566
a 2032 7297 11.6071
a 2032 2030 9.3096
a 2033 2034 8.3455
a 2033 2032 5.9753
a 2033 12350 10.6171
a 2034 2033 8.3455
a 2034 2029 9.7841
a 2034 2035 7.9502
a 2035 2048 5.0544
a 2035 2040 5.629
a 2035 2036 22.1386
a 2035 2034 7.9502
a 2036 2043 6.7464
a 2036 2044 8.1144
a 2036 2065 18.3586
a 2036 2035 22.1386
a 2037 2051 15.1801
a 2037 2038 9.2376
a 2037 2053 3.6122
a 2038 2052 101.6187
a 2038 2054 3.7008
a 2038 2039 8.6479
a 2038 2037 36.4226
a 2039 2038 44.7178
a 2039 2055 3.8455
a 2039 2029 13.4208
a 2039 2040 5.3244
a 2040 2035 28.7237
a 2040 2043 19.9469
a 2040 2039 5.3244
a 2041 2025 5.3093
a 2041 2042 81.1713
a 2041 12379 8.4614
a 2042 2043 6.5254
a 2042 2041 6.5362
a 2042 2028 7.5809
a 2042 12379 6.6082
a 2043 2036 6.7464
a 2043 2042 6.5254
a 2043 2040 19.9469
a 2043 2063 18.2131
a 2044 2047 3.7375
a 2044 2046 7.0078
a 2044 2036 165.7822
a 2044 2048 24.8854
a 2045 2046 1413.8764
a 2045 2048 4.2804
a 2045 896 51.8091
a 2045 2049 7.0574
a 2046 2045 245.0838
a 2046 897 6.3547
a 2046 2044 7.0078
a 2046 4033 16.3224
a 2047 2044 3.7375
a 2047 3344 13.495
a 2047 4091 14.6074
a 2048 2044 24.8854
a 2048 2045 4.2804
a 2048 2035 205.47
a 2049 896 5.3525
a 2049 2045 7.0574
a 2049 7261 5.8356
a 2050 2051 4.0543
a 2051 2037 3.5503
a 2051 13524 3.3408
a 2051 2052 9.3838
a 2051 2050 4.0543
a 2052 2030 4.6541
a 2052 2038 3.5251
a 2052 2051 9.3838
a 2053 2056 3.6238
a 2053 2054 9.3398
a 2053 2037 3.6122
a 2054 2038 3.7008
a 2054 2057 3.6389
a 2054 2055 9.1476
a 2054 2053 9.3398
a 2055 2054 9.1476
a 2055 2039 3.8455
a 2055 2058 3.721
a 2056 2059 3.5431
a 2056 2053 3.6238
a 2056 2057 9.3672
a 2057 2054 3.6389
a 2057 2060 3.5647
a 2057 2058 9.7034
a 2057 2056 9.3672
a 2058 2057 9.7034
a 2058 2055 3.721
a 2058 2061 3.5986
a 2059 2021 1.5574
a 2059 2056 3.5431
a 2059 2060 9.373
a 2060 2057 3.5647
a 2060 2062 3.6914
a 2060 2061 101.9801
a 2060 2059 9.373
a 2061 2060 10.2686
a 2061 2058 3.5986
a 2061 2028 3.2702
a 2062 2060 13.3485
a 2062 2025 5.9314
a 2062 2028 10.6538
a 2062 2024 8.0424
a 2063 2065 5.8694
a 2063 2064 59.3618
a 2063 2043 18.2131
a 2063 2027 8.6566
a 2064 2063 7.1784
a 2064 12379 39.0907
a 2064 2027 15.0466
a 2065 2063 5.8694
a 2065 3344 6.0509
a 2065 2026 9.81
a 2065 2036 18.3586
a 2066 2067 5.197
a 2066 921 9.8194
a 2066 955 13.873
a 2067 2066 5.197
a 2067 2068 4.1371
a 2067 948 16.6162
a 2068 2069 3.3739
a 2068 2067 4.1371
a 2068 10292 13.2826
a 2069 2071 6.102
a 2069 2068 3.3739
a 2069 918 9.797
a 2069 919 13.6562
a 2070 918 3.0434
a 2071 917 38.2027
a 2071 2069 6.102
a 2071 921 7.069
a 2072 7186 7.2907
a 2072 921 9.5674
a 2072 9619 9.9785
a 2072 916 15.4843
a 2073 1619 172.7972
a 2073 2075 4.9997
a 2073 2076 5.6707
a 2074 1618 1.4486
a 2074 1619 5.3957
a 2074 2075 15.3821
a 2075 2073 4.9997
a 2075 11198 15.8191
a 2075 2074 15.3821
a 2075 11502 22.2998
a 2076 2077 5.3431
a 2076 1620 10.3867
a 2076 2073 5.6707
a 2077 2076 5.3431
a 2077 2079 7.3462
a 2077 2078 10.7914
a 2078 9441 1.2679
a 2078 7105 15.0977
a 2078 2077 10.7914
a 2079 2077 7.3462
a 2079 8725 10.4285
a 2079 1620 18.846
a 2080 12749 13.5792
a 2080 11090 65.2939
a 2080 8181 17.6933
a 2081 8837 13.8413
a 2081 2082 15.876
a 2081 7829 80.9923
a 2081 8181 19.8713
a 2082 2081 15.876
a 2082 12330 24.5318
a 2083 8826 11.4811
a 2083 2085 3.69
a 2083 2109 9.0929
a 2083 2084 183.7335
a 2084 2089 11.4811
a 2084 1801 3.8542
a 2084 13105 16.2547
a 2084 2083 3.5654
a 2085 8825 11.381
a 2085 2083 3.69
a 2085 9668 8.478
a 2086 2087 3.6382
a 2087 12239 5.8111
a 2087 2099 11.7252
a 2088 2086 4.4604
a 2088 2091 403.2693
a 2089 2084 11.4811
a 2089 2094 3.6166
a 2089 8826 3.528
a 2089 2090 15.552
a 2090 2093 3.8455
a 2090 2089 144.7008
a 2091 8826 4.4474
a 2091 2088 11.0426
a 2091 2093 582.4677
a 2092 2100 3.9053
a 2092 2095 9.7351
a 2092 2099 20.011
a 2093 2099 3.7858
a 2093 2091 12.6655
a 2093 2088 5.3208
a 2094 2096 22.3255
a 2094 2089 3.6166
a 2094 2095 14.1602
a 2095 2090 3.2702
a 2095 2094 14.1602
a 2096 2094 4.9766
a 2096 1801 25.664
a 2096 7045 7.1654
a 2097 8993 4.1674
a 2097 9661 5.1034
a 2097 889 12.7397
a 2098 2100 39.8379
a 2098 2103 15.5218
a 2098 7045 3.7397
a 2099 3817 3.5597
a 2099 2093 3.7858
a 2099 2092 146.0046
a 2100 2092 3.9053
a 2100 2098 3.7541
a 2100 2101 806.7335
a 2101 2102 2.543
a 2101 8350 13.2833
a 2102 8828 8.4103
a 2102 893 5.4094
a 2102 2101 2.543
a 2103 2101 3.9312
a 2103 2098 15.5218
a 2103 893 401.4278
a 2104 7025 11.6424
a 2104 885 3.6814
a 2104 7035 3.8621
a 2105 7034 9.3852
a 2105 7031 6.4886
a 2105 7029 3.5892
a 2106 7034 3.5503
a 2106 7033 3.6187
a 2106 858 7.4282
a 2106 13404 138.893
a 2107 11109 3.2213
a 2107 7027 6.4613
a 2107 2108 3.7073
a 2108 886 5.1458
a 2108 2107 3.7073
a 2108 9661 6.3454
a 2109 9666 6.8148
a 2109 12405 15.1639
a 2109 2083 9.0929
a 2110 2128 42.8472
a 2110 11539 17.8855
a 2110 8224 4.1328
a 2110 2111 4.0054
a 2111 2915 15.3238
a 2111 2110 4.0054
a 2111 8318 3.1291
a 2112 2131 3.5971
a 2112 2113 11.8022
a 2112 8318 3.9391
a 2113 3719 4.32
a 2113 2961 3.7505
a 2113 2144 7.5838
a 2113 2112 11.8022
a 2114 3889 4.0867
a 2114 2134 3.7548
a 2114 3896 10.661
a 2114 2120 14.2029
a 2115 11543 8.105
a 2115 2117 3.8246
a 2115 2116 482.6732
a 2115 7400 7.9769
a 2116 2117 10.6272
a 2116 2119 3.6194
a 2116 2115 14.3366
a 2117 11539 8.1396
a 2117 2116 10.6272
a 2117 2120 3.5856
a 2117 2115 3.8246
a 2118 3880 3.9233
a 2118 2122 3.793
a 2118 7362 47.1814
a 2118 2123 5.8054
a 2119 2120 10.7417
a 2119 2135 81.9811
a 2119 2116 3.6194
a 2120 11540 8.0402
a 2120 2119 10.7417
a 2120 2117 40.8251
a 2120 2114 3.7879
a 2121 8062 37.6502
a 2121 1860 1.656
a 2122 2118 3.793
a 2122 8224 24.7586
a 2122 2124 3.6756
a 2123 2125 3.6446
a 2123 2118 5.8054
a 2123 7362 6.8184
a 2124 3880 4.0529
a 2124 2142 4.2574
a 2124 2122 3.6756
a 2125 2123 3.6446
a 2125 2126 245.7064
a 2125 2140 3.5654
a 2125 3880 35.2525
a 2126 2125 3.4841
a 2126 2994 3.6994
a 2126 10295 8.3362
a 2126 4059 17.838
a 2127 2136 3.402
a 2127 7635 6.3569
a 2127 4059 10.6184
a 2127 3115 6.7457
a 2128 2139 3.3703
a 2128 2110 22.4402
a 2128 2129 6.0149
a 2129 10093 0.7402
a 2129 2128 6.0149
a 2129 2863 7.3339
a 2130 10093 2.9412
a 2130 2905 5.4792
a 2130 2131 3.6648
a 2131 2112 3.5971
a 2131 7635 4.7549
a 2131 2132 3.559
a 2131 2130 3.6648
a 2132 2849 4.073
a 2132 2961 10.1743
a 2132 2131 3.559
a 2133 3006 3.6259
a 2133 3896 4.0428
a 2133 2134 169.6284
a 2133 2961 12.4236
a 2134 2114 3.7548
a 2134 3157 3.7526
a 2134 2133 354.8045
a 2135 2119 3.5813
a 2135 3157 3.7951
a 2135 3847 12.811
a 2136 2127 3.402
a 2136 2137 3.6468
a 2136 2905 6.3194
a 2137 2136 32.7016
a 2137 2138 16.5922
a 2137 2863 6.2381
a 2138 2137 3.5597
a 2138 7634 6.2453
a 2138 2140 3.6137
a 2139 2141 4.4978
a 2139 2128 3.3703
a 2139 7634 497.4136
a 2140 2125 3.5654
a 2140 7633 6.0847
a 2140 2138 3.6137
a 2141 7362 3.8218
a 2141 2139 45.0635
a 2141 7633 7.2554
a 2142 3833 22.9337
a 2142 2124 4.2574
a 2142 11159 3.6518
a 2143 7641 3.7663
a 2143 10295 0.3946
a 2143 2994 8.5363
a 2144 3938 4.2768
a 2144 2915 3.6554
a 2144 2113 110.4723
a 2145 4053 6.4786
a 2145 7518 4.9514
a 2145 2146 12.4135
a 2145 3935 18.8381
a 2146 3935 7.1806
a 2146 3021 6.4706
a 2146 2145 12.4135
a 2146 3160 6.485
a 2147 10989 0.5429
a 2147 7061 4.0529
a 2147 8350 20.8775
a 2148 2647 1.0843
a 2148 7917 21.5971
a 2148 12543 1.0354
a 2149 2691 17.069
a 2149 2669 55.4591
a 2150 13208 0.3233
a 2150 2792 4.0709
a 2150 2706 16.5082
a 2151 2149 4.9795
a 2151 7062 1.0123
a 2151 2633 4.7657
a 2152 2409 0.7668
a 2152 2161 2.461
a 2152 2880 1.7388
a 2153 3055 2.6791
a 2153 2880 2.767
a 2153 2157 10.5019
a 2154 3055 10.5379
a 2154 2157 2.6683
a 2154 2155 2.777
a 2155 2938 11.4084
a 2155 2154 2.777
a 2155 3133 2.556
a 2156 2891 4.0558
a 2157 3033 11.3796
a 2157 2158 2.9441
a 2157 2154 32.7011
a 2158 2959 7.1395
a 2158 3068 11.3357
a 2158 2157 2.9441
a 2158 2864 2.7828
a 2159 2411 2.8829
a 2159 2168 2.8001
a 2159 2853 11.3875
a 2159 2163 9.581
a 2160 2408 1.8223
a 2160 11187 4.8881
a 2160 2161 75.6982
a 2161 2152 2.461
a 2161 2160 42.3423
a 2161 2162 102.0007
a 2162 2991 16.7299
a 2162 2161 2.9347
a 2163 9360 3.2947
a 2163 2412 4.8233
a 2163 2159 9.581
a 2164 3012 9.8136
a 2164 2853 11.2205
a 2164 2410 77.8247
a 2164 2990 2.8073
a 2165 3100 11.3738
a 2165 2990 2.7238
a 2165 3163 33.802
a 2165 8951 11.1254
a 2166 2168 2.6345
a 2166 2167 13.0694
a 2167 11643 0.198
a 2167 9359 1.9188
a 2167 2166 13.0694
a 2168 2159 2.8001
a 2168 2166 2.6345
a 2168 9360 11.8217
a 2169 2175 0.7726
a 2169 2170 185.1676
a 2169 2172 2.929
a 2170 2173 2.7972
a 2170 2416 2.7389
a 2170 2810 32.2719
a 2171 8950 11.0066
a 2171 3163 2.6374
a 2171 2811 2.8958
a 2171 2810 11.3594
a 2172 2173 12.4466
a 2172 1748 2.9232
a 2172 2169 283.647
a 2173 2172 12.4466
a 2173 2414 11.2702
a 2173 2170 2.7972
a 2173 2174 2.7612
a 2174 1748 11.8368
a 2174 2413 149.332
a 2174 2173 2.7612
a 2175 2169 0.7726
a 2175 11255 10.6842
a 2175 2415 1.854
a 2176 8417 2.9254
a 2176 2177 4.6534
a 2177 2176 4.6534
a 2178 2179 9.342
a 2178 7651 34.8332
a 2179 2180 7.6277
a 2179 1487 19.6358
a 2179 13453 18.8921
a 2179 2178 9.342
a 2180 1490 9.8352
a 2180 2179 87.4784
a 2180 1488 19.6056
a 2180 2183 19.949
a 2181 8173 2.6906
a 2181 2182 9.5328
a 2182 13453 1.0778
a 2182 13451 4.9421
a 2182 2183 7.637
a 2182 2181 9.5328
a 2183 3178 9.7618
a 2183 2182 7.637
a 2183 2180 74.8677
a 2183 1479 13.8514
a 2184 8817 9.4335
a 2184 278 1.139
a 2185 867 6.6782
a 2185 7937 1.9706
a 2186 861 5.8795
a 2186 872 39.26
a 2186 874 9.0346
a 2186 12094 19.697
a 2187 2741 10.8274
a 2187 12023 278.3378
a 2187 2739 4.4129
a 2187 2623 16.3714
a 2188 2191 4.0514
a 2188 3940 7.3462
a 2188 2189 4.4309
a 2189 11084 6.4051
a 2189 863 3.8779
a 2189 2188 4.4309
a 2189 3710 3.9125
a 2190 1809 4.001
a 2190 3684 12.5935
a 2190 3752 26.8495
a 2190 2605 26.5312
a 2191 3886 7.6241
a 2191 2188 38.1227
a 2191 2192 5.0335
a 2192 3986 4.536
a 2192 2193 3.3192
a 2192 2191 5.0335
a 2193 2194 4.0882
a 2193 3622 10.7381
a 2193 2192 24.948
a 2194 2195 4.3538
a 2194 2193 4.0882
a 2194 2739 693.8459
a 2195 2194 4.3538
a 2195 12023 6.3936
a 2195 864 5.7629
a 2196 1803 5.4389
a 2196 3928 4.7945
a 2196 1805 2.6942
a 2196 2588 20.9447
a 2197 1807 4.397
a 2197 4080 4.1501
a 2197 1804 5.7118
a 2197 3874 395.9436
a 2198 3678 13.5297
a 2198 2597 2.9254
a 2198 3811 2.0369
a 2199 3973 2.1384
a 2199 3811 8.8075
a 2199 10044 2.1046
a 2200 8029 22.7916
a 2200 7932 11.52
a 2200 11078 17.7019
a 2201 12815 3.6799
a 2201 2204 8.0402
a 2201 2202 24.1387
a 2202 2201 24.1387
a 2202 2203 3.8736
a 2202 2205 2.849
a 2203 2204 24.2798
a 2203 2207 21.5662
a 2203 2206 55.8728
a 2203 2202 3.8736
a 2204 2208 15.0005
a 2204 2201 8.0402
a 2204 2203 24.2798
a 2205 2202 2.849
a 2206 10034 0.6595
a 2206 2208 12.5186
a 2206 2203 4.4863
a 2207 2203 21.5662
a 2207 3277 43.447
a 2207 3287 9.1015
a 2208 2209 5.1883
a 2208 2204 15.0005
a 2208 2206 983.2684
a 2209 2208 19.3479
a 2210 2212 5.1372
a 2210 2213 4.8614
a 2210 10034 5.1062
a 2211 3248 8.1454
a 2211 2217 4.387
a 2211 12224 2.2637
a 2212 10033 0.7178
a 2212 2210 5.1372
a 2212 2216 6.4944
a 2213 2210 4.8614
a 2214 2218 2.1492
a 2215 2216 4.3142
a 2215 2217 14.3878
a 2215 2218 438.1533
a 2216 2215 4.3142
a 2216 3248 6.1862
a 2216 2212 6.4944
a 2217 2215 14.3878
a 2217 2218 3.9874
a 2217 2211 4.387
a 2218 2214 2.1492
a 2218 2217 3.9874
a 2218 2215 18.7697
a 2219 2252 2.7799
a 2219 2243 15.3625
a 2219 2234 71.1734
a 2220 2282 2.6669
a 2220 2223 7.5578
a 2220 2224 10.2528
a 2220 10920 7.7486
a 2221 2282 2.641
a 2221 2225 7.5499
a 2221 2231 7.8091
a 2222 2227 14.6593
a 2222 9502 18.3035
a 2222 8780 4.1234
a 2223 2220 7.5578
a 2223 2224 2.8886
a 2223 2281 2.61
a 2223 2233 13.4701
a 2224 2223 2.8886
a 2224 2220 66.1563
a 2224 2234 23.0681
a 2225 2221 112.0327
a 2225 2281 2.6935
a 2225 2230 94.6053
a 2226 9503 37.9877
a 2226 9503 10.1455
a 2226 11564 7.1734
a 2227 2229 2.7187
a 2227 2222 13.4205
a 2227 2228 12.6662
a 2227 2232 2.5927
a 2228 9503 3.4128
a 2228 2227 12.6662
a 2228 9501 2.7209
a 2229 2230 2.7029
a 2229 2227 41.9987
a 2229 9501 12.6706
a 2230 2229 2.7029
a 2230 2231 12.6749
a 2230 2225 2.6669
a 2231 2230 12.6749
a 2231 9501 2.6935
a 2231 2221 7.8091
a 2232 2233 13.4021
a 2232 2227 2.5927
a 2232 2238 3.2335
a 2233 2232 139.4068
a 2233 2236 9.0382
a 2233 2223 2.6791
a 2234 2245 2.7634
a 2234 2236 8.8517
a 2234 2224 23.0681
a 2234 2219 2.6309
a 2235 2244 2.6618
a 2235 2242 38.6863
a 2235 2237 8.8416
a 2236 2244 2.6777
a 2236 2234 8.8517
a 2236 2233 9.0382
a 2237 2245 2.5798
a 2237 2241 2.6719
a 2237 2235 8.8416
a 2238 2240 2.6849
a 2238 2232 61.4918
a 2238 11621 7.6378
a 2239 11621 12.617
a 2239 2241 9.3794
a 2239 2240 14.9472
a 2240 2238 2.6849
a 2240 2242 2.7331
a 2240 2239 14.9472
a 2241 2242 14.675
a 2241 2237 2.6719
a 2241 2239 528.8949
a 2242 2241 14.675
a 2242 2240 2.7331
a 2242 2235 8.149
a 2243 2254 3.6605
a 2243 2249 50.2885
a 2243 2219 0.6379
a 2244 2236 25.5617
a 2244 2235 2.6618
a 2244 2245 693.0617
a 2245 2244 8.8639
a 2245 2234 2.7634
a 2245 2237 2.5798
a 2246 7909 4.505
a 2246 2275 8.9878
a 2246 11389 13.2329
a 2247 2260 3.2292
a 2247 2262 8.8553
a 2247 2248 3.0802
a 2248 7020 2.3522
a 2248 2247 3.0802
a 2248 7026 7.9812
a 2249 2268 29.0122
a 2249 2243 16.2986
a 2249 2250 31.2274
a 2249 2255 6.4966
a 2250 2249 2.8541
a 2250 2252 16.8581
a 2250 2251 15.0588
a 2251 11392 10.7927
a 2251 2263 65.6911
a 2251 2250 15.0588
a 2252 2219 2.7799
a 2252 10011 4.945
a 2252 2250 16.8581
a 2253 2288 2.5646
a 2253 9598 27.7546
a 2253 2286 12.2386
a 2254 2243 3.6605
a 2254 7038 5.2366
a 2254 2255 14.0638
a 2255 7030 3.0593
a 2255 2256 2.8073
a 2255 2249 6.4966
a 2255 2254 14.0638
a 2256 2255 2.8073
a 2256 11391 12.4603
a 2256 2267 9.2146
a 2256 2266 14.5166
a 2257 2276 14.7974
a 2257 2274 2.9189
a 2257 2277 2.9801
a 2258 2260 3.1975
a 2258 7909 4.5864
a 2258 2259 408.0617
a 2258 2266 2.9866
a 2259 2261 3.1327
a 2259 11389 4.6634
a 2259 2258 8.9467
a 2259 8272 7.4912
a 2260 2247 40.5571
a 2260 2258 3.1975
a 2260 2261 8.9006
a 2261 2262 3.2731
a 2261 2259 3.1327
a 2261 2260 414.9447
a 2262 7038 5.2841
a 2262 2261 3.2731
a 2262 2247 8.8553
a 2263 2251 3.6346
a 2263 8267 5.2524
a 2263 2264 7.5262
a 2264 2289 4.6735
a 2264 2271 7.547
a 2264 2263 7.5262
a 2265 2266 2.7756
a 2265 2276 3.1918
a 2265 2273 2.8202
a 2266 2258 2.9866
a 2266 2265 2.7756
a 2266 2256 14.5166
a 2267 2269 3.9895
a 2267 2268 3.6734
a 2267 2256 26.5765
a 2268 11392 4.6692
a 2268 2249 6.9566
a 2268 2267 3.6734
a 2269 2289 4.7837
a 2269 2270 7.4354
a 2269 2267 3.9895
a 2269 11391 6.3533
a 2270 2269 104.3997
a 2270 2272 8.4953
a 2270 3352 4.8341
a 2271 3352 99.4843
a 2271 2264 7.547
a 2271 2274 2.7022
a 2272 2273 2.7094
a 2272 2270 8.4953
a 2272 11391 6.7608
a 2273 2265 2.8202
a 2273 2272 2.7094
a 2273 2274 17.9856
a 2274 2273 17.9856
a 2274 2271 111.128
a 2274 2257 2.9189
a 2275 10911 3.5143
a 2275 2246 24.707
a 2275 2279 3.0017
a 2276 2265 3.1918
a 2276 2257 14.7974
a 2276 2278 10.0489
a 2277 2257 16.4426
a 2277 2280 3.0074
a 2277 2278 14.8219
a 2278 2276 3.078
a 2278 11386 5.1189
a 2278 2277 14.8219
a 2279 11386 1.5466
a 2279 2275 6.9099
a 2279 2280 1119.8278
a 2280 2277 3.0074
a 2280 2279 14.8471
a 2280 10911 14.1192
a 2281 2223 2.61
a 2281 2225 2.6935
a 2281 2282 7.5535
a 2282 2221 2.641
a 2282 2220 2.6669
a 2282 2281 7.5535
a 2283 2287 3.8254
a 2283 9455 14.8766
a 2283 7046 5.4216
a 2284 2286 1.9181
a 2285 2288 3.6497
a 2285 7046 5.1185
a 2285 12770 22.315
a 2286 2287 4.3718
a 2286 2253 12.2386
a 2286 2284 1.9181
a 2287 2288 10.5682
a 2287 2286 15.1648
a 2287 2283 35.8989
a 2288 2285 3.6497
a 2288 2253 2.5646
a 2288 2287 10.5682
a 2289 2269 4.7837
a 2289 2264 4.6735
a 2289 3353 2.8692
a 2289 2290 2.795
a 2290 2289 2.795
a 2290 11393 5.6419
a 2290 11393 5.3856
a 2291 7047 16.0704
a 2291 11674 20.0124
a 2292 10782 3.5964
a 2292 2314 7.3685
a 2292 2310 6.6996
a 2293 2294 47.0736
a 2293 2296 270.4033
a 2294 7233 1.4645
a 2294 3495 33.3621
a 2294 2293 47.0736
a 2295 11691 1.4357
a 2295 3492 24.768
a 2295 12738 18.2686
a 2296 11550 22.0637
a 2296 7876 2.0462
a 2297 5130 6.0595
a 2297 5128 6.1704
a 2298 11405 3.6176
a 2298 11682 0.1577
a 2299 2300 8.0518
a 2299 13152 12.4229
a 2299 5134 7.7458
a 2300 5133 3.96
a 2300 2299 73.7554
a 2300 5137 9.7589
a 2301 8041 18.527
a 2301 823 2.0801
a 2301 8655 1.6769
a 2302 7352 27.6746
a 2302 2303 26.6811
a 2302 2303 19.188
a 2303 2302 3.0362
a 2303 2302 448.2975
a 2303 826 26.5242
a 2304 11134 0.8258
a 2304 826 51.3933
a 2304 825 12.1298
a 2305 4820 5.4533
a 2305 11055 34.2122
a 2306 4827 69.2426
a 2306 4824 70.6263
a 2306 4822 77.6613
a 2307 11674 60.5668
a 2307 4835 10.3032
a 2307 9597 11.3652
a 2307 2310 10.8086
a 2308 11054 1.8418
a 2308 2366 3.8117
a 2309 2361 7.0049
a 2309 2327 7.5269
a 2309 2366 10.6632
a 2310 2333 7.4513
a 2310 2311 11.3746
a 2310 2292 6.6996
a 2310 2307 10.8086
a 2311 2315 6.8062
a 2311 12209 117.1229
a 2311 2312 7.4383
a 2311 2310 446.222
a 2312 11395 8.2721
a 2312 2313 7.6226
a 2312 2311 7.4383
a 2313 9598 15.3835
a 2313 11396 5.5166
a 2313 2312 71.2985
a 2314 2292 7.3685
a 2314 10783 3.6727
a 2314 2333 6.6391
a 2315 10782 7.7926
a 2315 2316 6.1531
a 2315 2322 24.6679
a 2315 2311 6.8062
a 2316 2315 6.1531
a 2316 2323 19.2326
a 2316 2321 20.2745
a 2316 2317 4.1184
a 2317 2318 3.9838
a 2317 2360 16.5024
a 2317 2316 4.1184
a 2318 2319 1.1772
a 2318 2317 3.9838
a 2318 11779 0.5594
a 2318 2338 6.9502
a 2319 2318 1.1772
a 2320 2367 5.9004
a 2320 11086 8.7811
a 2320 10325 115.2171
a 2321 2316 20.2745
a 2321 2322 42.3621
a 2321 10326 32.3249
a 2322 2315 24.6679
a 2322 8499 3.0636
a 2322 2321 5.9638
a 2322 12658 2.6261
a 2323 10783 6.1409
a 2323 2324 5.8478
a 2323 2316 19.2326
a 2323 2329 7.9826
a 2324 2325 5.2171
a 2324 2323 5.8478
a 2324 2328 17.1641
a 2325 2326 6.9545
a 2325 2324 5.2171
a 2325 2362 11.4185
a 2326 2327 5.6002
a 2326 2325 6.9545
a 2326 2362 9.3924
a 2327 2326 5.6002
a 2327 2342 5.2387
a 2327 2309 7.5269
a 2328 2361 4.3538
a 2328 2333 4.4467
a 2328 2324 17.1641
a 2329 2330 4.801
a 2329 2323 7.9826
a 2329 2337 5.1847
a 2329 2365 10.1347
a 2330 10785 3.5258
a 2330 10126 11.6366
a 2330 2329 4.801
a 2331 2336 6.1193
a 2331 2368 8.2411
a 2331 2332 25.0668
a 2331 10127 8.0302
a 2332 2331 561.1205
a 2333 2310 7.4513
a 2333 2314 6.6391
a 2333 2328 4.4467
a 2334 3381 3.7526
a 2334 2389 5.6902
a 2334 2336 25.3944
a 2335 2350 3.5762
a 2335 3380 3.659
a 2335 3378 57.2568
a 2336 2331 6.1193
a 2336 2367 5.4958
a 2336 2334 25.3944
a 2336 11087 8.0885
a 2337 2329 5.1847
a 2337 2338 5.67
a 2337 10784 11.5805
a 2338 2337 5.67
a 2338 2318 6.9502
a 2338 2339 7.2619
a 2339 2338 7.2619
a 2340 2367 8.8229
a 2341 2367 18.0202
a 2342 2365 242.4993
a 2342 12739 63.1456
a 2342 2327 5.2387
a 2342 7946 3.1594
a 2343 12507 1.2132
a 2343 10787 4.9687
a 2343 12506 2.2442
a 2344 2368 3.2947
a 2344 2345 5.1242
a 2344 2349 24.768
a 2344 2374 17.6407
a 2345 2346 5.1012
a 2345 2344 5.1242
a 2346 2345 5.1012
a 2346 2351 20.1931
a 2346 2347 6.2122
a 2347 12977 2.61
a 2347 6910 20.5106
a 2347 2346 6.2122
a 2348 2373 5.3129
a 2348 4339 12.6144
a 2348 12975 2.9491
a 2348 2380 4.495
a 2349 7013 5.0774
a 2349 2350 4.2833
a 2350 3372 3.6094
a 2350 2335 3.5762
a 2350 2349 4.2833
a 2351 2352 3.9996
a 2351 6910 6.1762
a 2351 2346 20.1931
a 2351 7013 5.0242
a 2352 2385 3.5777
a 2352 2388 5.8147
a 2352 2351 3.9996
a 2352 3372 7.177
a 2353 10899 31.3829
a 2353 2384 3.6662
a 2353 2388 15.8652
a 2353 10901 3.3574
a 2354 6913 37.311
a 2354 6928 6.0509
a 2354 6912 615.2292
a 2355 12970 1.0138
a 2355 9944 24.0163
a 2355 8714 83.784
a 2356 8711 0.7711
a 2356 6994 4.6087
a 2356 4383 47.004
a 2357 3383 32.4921
a 2357 3377 11.6124
a 2357 3379 15.7594
a 2357 3376 11.8699
a 2358 2359 3.8412
a 2358 10332 3.1622
a 2358 10330 5.899
a 2359 10320 2.7144
a 2359 9650 6.3994
a 2359 2358 3.8412
a 2359 9649 12.7721
a 2360 2317 16.5024
a 2361 2328 4.3538
a 2361 2362 4.2358
a 2361 2309 7.0049
a 2362 2361 4.2358
a 2362 2325 11.4185
a 2362 2326 119.4961
a 2363 10961 7.2706
a 2364 2365 2.7842
a 2365 10787 116.3554
a 2365 2342 23.2078
a 2365 2364 2.7842
a 2365 2329 10.1347
a 2366 10791 302.3794
a 2366 2308 3.8117
a 2366 2309 10.6632
a 2367 2336 5.4958
a 2367 2320 62.4282
a 2367 2341 91.4223
a 2367 2340 8.8229
a 2368 2344 3.2947
a 2368 2369 0.9943
a 2368 2331 8.2411
a 2369 2368 0.9943
a 2369 12507 9.5234
a 2369 12092 22.1573
a 2370 2371 2.1629
a 2371 9405 25.5038
a 2371 2373 3.9514
a 2371 2370 72.4148
a 2372 4431 4.2862
a 2372 9407 5.5584
a 2372 2380 19.7791
a 2373 2348 5.3129
a 2373 10902 3.5842
a 2373 2371 3.9514
a 2373 4363 4.6627
a 2374 2344 17.6407
a 2375 4388 3.7771
a 2375 2376 12.0499
a 2375 9401 4.2473
a 2376 4401 4.2732
a 2376 2377 10.3658
a 2376 2375 12.0499
a 2376 4516 5.8162
a 2377 2378 4.3423
a 2377 2376 30.7669
a 2377 4516 7.7047
a 2378 2377 4.3423
a 2378 4546 4.2091
a 2378 4527 1.4983
a 2379 4416 5.4158
a 2379 2380 3.7915
a 2379 4431 21.4409
a 2380 2379 3.7915
a 2380 2348 4.495
a 2380 2372 19.7791
a 2381 9406 13.5835
a 2381 4541 4.4921
a 2381 4406 4.5986
a 2382 2383 6.246
a 2383 2386 15.8494
a 2383 2382 84.5936
a 2383 2384 3.6259
a 2384 2387 15.8285
a 2384 2353 3.6662
a 2384 2383 3.6259
a 2384 3384 112.8489
a 2385 2352 11.1813
a 2385 2387 5.8313
a 2385 2386 319.7735
a 2386 2383 15.8494
a 2386 2387 3.6382
a 2386 2385 9.2772
a 2387 2385 196.7577
a 2387 2384 65.7832
a 2387 2388 3.6115
a 2387 2386 3.6382
a 2388 3371 7.2965
a 2388 2387 3.6115
a 2388 2352 5.8147
a 2388 2353 15.8652
a 2389 3382 3.7181
a 2389 2334 5.6902
a 2389 3357 9.9526
a 2390 2391 17.2495
a 2390 1500 5.7751
a 2390 2877 294.1927
a 2390 2393 15.4836
a 2391 2390 4.6318
a 2391 2406 5.2934
a 2391 2394 15.408
a 2392 2921 12.767
a 2392 2406 0.8014
a 2392 2400 80.1392
a 2393 2394 206.1425
a 2393 12268 92.5093
a 2393 2390 15.4836
a 2393 2018 366.2576
a 2394 2395 4.9327
a 2394 2393 4.6188
a 2394 2391 15.408
a 2394 167 16.6118
a 2395 2394 4.9327
a 2395 7661 9.3672
a 2395 2017 94.0061
a 2396 1498 6.174
a 2396 2401 15.4346
a 2396 13016 12.1529
a 2396 2947 3.7289
a 2397 2398 2.8346
a 2397 2401 4.7678
a 2397 2947 15.1819
a 2398 3003 3.7188
a 2398 2397 2.8346
a 2398 2399 4.608
a 2399 11949 6.0955
a 2399 2398 16.8086
a 2400 11949 1.2715
a 2400 2392 139.7295
a 2400 2877 13.0673
a 2401 2397 4.7678
a 2401 2877 9.8107
a 2401 2396 15.4346
a 2401 1499 5.5634
a 2402 12038 1.1477
a 2402 2399 13.5238
a 2402 2405 12.6194
a 2403 12038 3.2141
a 2403 3003 9.8705
a 2403 9105 4.073
a 2404 2405 39.4337
a 2404 2900 2.2291
a 2404 8955 2.9311
a 2405 2404 9.1886
a 2405 3075 5.4036
a 2405 2402 12.6194
a 2406 2392 0.8014
a 2406 2391 5.2934
a 2406 7661 5.9846
a 2407 3147 1.9714
a 2407 2410 13.5119
a 2407 9995 7.9301
a 2407 2921 8.6566
a 2408 2160 1.8223
a 2408 2411 2.6431
a 2408 2409 3.1594
a 2408 2895 13.5828
a 2409 2152 0.7668
a 2409 2408 3.1594
a 2409 2412 4.2538
a 2410 2895 11.2968
a 2410 2407 2.731
a 2410 2164 2.8253
a 2410 3082 12.0269
a 2411 2408 2.6431
a 2411 2159 34.9211
a 2411 2895 126.979
a 2411 2412 6.0847
a 2412 2163 4.8233
a 2412 2411 6.0847
a 2412 2409 4.2538
a 2413 2414 2.5841
a 2413 2812 11.3357
a 2413 2174 11.281
a 2414 2173 11.2702
a 2414 2811 11.3566
a 2414 2810 2.8894
a 2414 2413 27.7625
a 2415 2416 182.745
a 2415 11643 9.4546
a 2415 2175 1.854
a 2416 2415 13.0378
a 2416 2166 2.9038
a 2418 2426 4.6058
a 2418 2425 14.2027
a 2418 2874 37.1422
a 2419 2422 20.3062
a 2419 2422 15.8983
a 2419 7101 4.3668
a 2420 2424 4.6382
a 2420 7101 326.2897
a 2420 2422 7.1705
a 2420 2426 4.9162
a 2421 2422 4.8247
a 2421 2423 5.1689
a 2421 7102 23.1098
a 2422 2421 4.8247
a 2422 2419 90.7032
a 2422 2419 15.8983
a 2422 2420 7.1705
a 2423 2424 5.3143
a 2423 587 20.9419
a 2423 2421 5.1689
a 2424 2423 5.3143
a 2424 2986 10.7302
a 2424 2420 4.6382
a 2425 2426 12.3602
a 2425 7102 36.6408
a 2425 2418 14.2027
a 2426 2425 12.3602
a 2426 2418 4.6058
a 2426 2427 15.287
a 2426 2420 4.9162
a 2427 2874 4.6944
a 2427 2955 31.933
a 2427 2986 4.793
a 2427 2426 15.287
a 2428 11966 1.5674
a 2428 2929 18.9979
a 2429 1550 7.3094
a 2429 7270 13.0658
a 2429 2430 162.9675
a 2430 1551 20.0529
a 2430 602 75.1901
a 2430 615 20.1506
a 2430 2429 7.6428
a 2431 2432 2.6525
a 2431 612 3.1572
a 2432 2975 10.7928
a 2432 2431 2.6525
a 2432 2433 2.682
a 2433 2432 2.682
a 2433 2434 2.6093
a 2434 2891 10.3126
a 2434 2433 2.6093
a 2434 615 3.991
a 2435 9802 12.1068
a 2435 9801 1.8943
a 2436 9686 2.2658
a 2436 1068 158.0938
a 2437 4234 8.7768
a 2437 7453 113.644
a 2437 5936 10.553
a 2438 7319 15.691
a 2438 10451 6.336
a 2438 5812 16.7436
a 2439 5566 10.1333
a 2439 5758 3.7066
a 2439 5517 9.2254
a 2440 7513 18.4349
a 2440 13447 6.9166
a 2440 9298 7.1359
a 2441 7773 5.4878
a 2441 1142 34.8264
a 2441 6974 595.2258
a 2442 10068 13.0687
a 2442 2892 274.2198
a 2442 7849 5.3244
a 2443 11178 0.527
a 2443 2444 17.0273
a 2444 7717 0.6883
a 2444 7526 8.1648
a 2445 13494 0.6041
a 2445 12129 8.0042
a 2446 7248 9.7747
a 2446 7583 10.6049
a 2447 11283 2.7562
a 2447 9440 5.6059
a 2447 2448 3.3242
a 2448 2449 3.4416
a 2448 2447 3.3242
a 2448 9440 35.8158
a 2449 2448 3.4416
a 2449 8087 4.1738
a 2449 12726 4.4417
a 2450 10897 1.9044
a 2450 8092 0.931
a 2451 1959 5.251
a 2451 1957 7.4606
a 2451 1958 12.8448
a 2452 1909 5.8795
a 2452 6954 5.3323
a 2452 1906 17.0482
a 2452 1887 62.7952
a 2453 1539 23.3093
a 2453 3211 23.6009
a 2453 681 8.6839
a 2453 10820 8.6494
a 2454 509 4.6966
a 2454 88 18.2556
a 2454 81 18.2081
a 2455 1384 6.7399
a 2455 1474 6.0948
a 2455 1459 13.6807
a 2455 1458 129.3154
a 2456 1469 6.791
a 2456 1116 5.3791
a 2456 1463 12.065
a 2456 1787 12.0478
a 2457 1520 11.677
a 2457 1522 11.4682
a 2457 1519 3.6684
a 2457 1377 13.4933
a 2458 1362 11.6482
a 2458 1361 11.6093
a 2458 1797 2.3702
a 2459 1338 136.5433
a 2459 8370 5.6376
a 2459 1341 3.6454
a 2459 1109 5.1055
a 2460 1386 4.4093
a 2460 1426 3.9442
a 2460 1422 12.8635
a 2460 1423 9.1577
a 2461 11451 5.4317
a 2461 160 28.4206
a 2462 1106 6.9912
a 2462 1459 6.9077
a 2462 13514 7.0142
a 2462 1209 10.728
a 2463 850 17.1986
a 2463 7534 2.7886
a 2464 2465 5.2783
a 2465 748 0.8892
a 2465 394 5.0314
a 2466 353 57.0734
a 2466 2471 4.6094
a 2466 13041 0.8698
a 2467 849 544.0091
a 2467 2468 24.0458
a 2468 2469 5.1437
a 2468 8177 0.7279
a 2468 848 174.435
a 2469 7533 0.7762
a 2469 2470 5.0314
a 2470 358 16.6313
a 2470 2464 5.0494
a 2471 2472 8.2865
a 2471 352 17.6162
a 2472 350 878.8088
a 2472 12071 5.5642
a 2473 2474 4.3236
a 2474 347 18.0079
a 2474 397 4.7333
a 2475 1295 26.5896
a 2475 539 8.3095
a 2475 2476 11.8224
a 2476 7512 4.4107
a 2476 1240 4.6145
a 2476 274 15.7838
a 2476 2475 11.8224
a 2477 7529 6.0343
a 2477 12071 1.0318
a 2477 12284 1.0066
a 2478 1821 14.0443
a 2478 1838 5.3561
a 2478 1822 20.484
a 2479 554 4.4928
a 2479 273 4.145
a 2479 2480 8.8992
a 2479 8073 10.2946
a 2480 1287 4.3279
a 2480 2479 8.8992
a 2480 1285 3.7008
a 2481 2482 4.5022
a 2481 3531 19.7237
a 2481 1533 4.3027
a 2482 2481 4.5022
a 2482 1528 11.6358
a 2483 1529 5.1667
a 2483 3095 5.6995
a 2483 3532 18.6199
a 2483 2484 4.5007
a 2484 2483 4.5007
a 2484 2485 4.1803
a 2484 9317 11.9966
a 2485 2484 4.1803
a 2485 3530 18.455
a 2485 157 5.4554
a 2486 862 0.823
a 2486 12263 6.0156
a 2487 4605 280.81
a 2487 4679 13.8106
a 2487 4767 2.3911
a 2488 12748 0.7603
a 2488 2491 21.4358
a 2488 2490 4.5173
a 2488 3136 4.3992
a 2489 3086 14.9429
a 2489 2865 3.7814
a 2489 2878 4.41
a 2490 3083 16.938
a 2490 2488 4.5173
a 2490 3091 3.7937
a 2491 2488 21.4358
a 2491 2492 231.4816
a 2491 3112 5.8817
a 2492 3083 4.3927
a 2492 3086 4.4446
a 2492 2493 14.8939
a 2492 2491 4.5742
a 2493 3061 4.4611
a 2493 2876 20.831
a 2493 2492 14.8939
a 2493 3120 4.5158
a 2494 2495 1.2802
a 2494 10374 19.003
a 2494 12672 2.3904
a 2495 2494 1.2802
a 2495 56 11.8678
a 2495 2507 5.179
a 2496 4451 16.0199
a 2496 4368 21.3437
a 2496 9110 4.5144
a 2497 4376 13.284
a 2497 4343 3.8945
a 2497 4349 4.0658
a 2498 2504 4.0334
a 2498 2506 4.5972
a 2498 4343 132.0919
a 2499 8520 6.1193
a 2499 2501 2.1679
a 2499 2504 21.618
a 2500 2509 3.767
a 2500 2508 27.5026
a 2500 8519 4.4122
a 2501 2499 2.1679
a 2501 2505 75.8578
a 2501 8198 2.646
a 2502 8192 6.822
a 2502 8194 2.947
a 2502 8202 4.1227
a 2503 2504 7.601
a 2503 8520 13.5086
a 2503 8520 11.3911
a 2504 2498 4.0334
a 2504 2503 7.601
a 2504 2499 21.618
a 2505 2501 2.6993
a 2505 4564 3.8426
a 2505 2506 27.4349
a 2506 4523 214.5045
a 2506 2498 4.5972
a 2506 2505 275.5876
a 2507 2527 19.5926
a 2507 2495 5.179
a 2507 12923 2.0059
a 2508 2510 3.8894
a 2508 2500 27.5026
a 2508 12925 28.5631
a 2508 2809 4.9824
a 2509 2524 3.8023
a 2509 2500 3.767
a 2509 2510 27.4702
a 2510 2508 29.1745
a 2510 2525 3.6727
a 2510 2511 246.7741
a 2510 2509 27.4702
a 2511 2510 28.5559
a 2511 2526 3.8614
a 2511 12925 3.721
a 2512 2521 3.8131
a 2512 2517 28.5134
a 2512 2513 3.7973
a 2513 4451 4.5446
a 2513 4430 28.523
a 2513 2512 3.7973
a 2514 2515 27.2772
a 2514 4565 15.084
a 2514 12921 1.2269
a 2514 4523 16.7898
a 2515 2514 320.1703
a 2515 4564 3.6
a 2515 2516 4.6253
a 2515 2518 3.847
a 2516 2515 4.6253
a 2516 8519 26.5558
a 2516 8219 3.8693
a 2516 11347 8.9842
a 2517 2520 3.7339
a 2517 12922 1.3205
a 2517 2518 27.2988
a 2517 2512 28.5134
a 2518 2519 3.7692
a 2518 2517 27.2988
a 2518 2515 3.847
a 2519 2518 3.7692
a 2519 2523 42.4327
a 2519 2520 142.0083
a 2520 13031 3.6058
a 2520 2517 3.7339
a 2520 2519 27.2405
a 2520 2521 28.615
a 2521 2512 3.8131
a 2521 2522 57.7097
a 2521 2520 28.615
a 2522 2521 22.8353
a 2522 4453 8.6983
a 2522 2526 7.5262
a 2523 2519 3.6965
a 2523 4498 3.8822
a 2523 13031 27.2585
a 2524 4498 3.6914
a 2524 2509 3.8023
a 2524 2525 27.4349
a 2525 2510 3.6727
a 2525 4502 3.6331
a 2525 2524 27.4349
a 2525 4536 19.867
a 2526 2511 3.8614
a 2526 4536 8.6803
a 2526 2522 68.6919
a 2527 4451 6.7435
a 2527 2507 19.5926
a 2527 7012 6.9214
a 2528 2954 5.2589
a 2528 11072 8.8999
a 2528 171 6.6744
a 2529 141 1.0152
a 2529 525 5.549
a 2529 520 10.0598
a 2530 2532 6.5988
a 2530 3288 6.3612
a 2530 108 877.6376
a 2531 9480 1.2276
a 2531 12431 7.0726
a 2531 6949 15.4296
a 2532 8378 0.9641
a 2532 2530 6.5988
a 2532 7557 11.592
a 2533 2486 1.098
a 2533 11354 0.6322
a 2534 517 4.1616
a 2534 90 4.1969
a 2535 2537 10.9382
a 2535 8623 9.815
a 2536 2559 8.275
a 2536 2917 16.0834
a 2536 2539 5.1991
a 2536 8120 51.4215
a 2537 9497 2.1398
a 2537 239 9.5645
a 2537 425 6.9962
a 2538 2539 4.4446
a 2538 2566 17.2922
a 2538 2564 4.536
a 2539 2538 4.4446
a 2539 2536 5.1991
a 2539 2567 17.2073
a 2539 3125 21.0607
a 2540 433 4.5144
a 2540 412 5.1941
a 2540 8622 20.3846
a 2541 415 381.0371
a 2541 2540 12.6871
a 2541 434 9.4039
a 2541 2570 15.1517
a 2542 2555 4.5958
a 2542 2554 14.6376
a 2542 431 49.0643
a 2542 2543 157.7616
a 2543 2545 5.1062
a 2543 2550 78.8897
a 2543 2549 14.2315
a 2543 2542 5.2186
a 2544 2553 4.4057
a 2544 2822 229.4454
a 2544 2819 14.5008
a 2544 2814 16.2194
a 2545 2553 4.5504
a 2545 2543 5.1062
a 2545 419 178.2451
a 2545 2546 295.2313
a 2546 2552 4.3906
a 2546 2549 5.2308
a 2546 2545 14.0918
a 2547 2548 5.0508
a 2547 8120 14.1235
a 2547 8623 10.4371
a 2548 2549 4.3798
a 2548 2547 5.0508
a 2548 2567 14.1422
a 2549 2548 4.3798
a 2549 2546 52.3546
a 2549 2543 14.2315
a 2549 2554 4.7534
a 2550 431 21.0689
a 2550 2551 4.9327
a 2550 2543 65.8712
a 2550 419 9.0094
a 2551 2816 23.7802
a 2551 7745 40.1792
a 2551 2550 4.9327
a 2551 418 542.6397
a 2552 2566 4.4813
a 2552 2546 4.3906
a 2552 11287 4.4278
a 2553 2544 35.5538
a 2553 2545 4.5504
a 2553 11286 0.7351
a 2553 2813 24.4548
a 2554 2556 5.7168
a 2554 2542 14.6376
a 2554 2549 4.7534
a 2555 413 4.7232
a 2555 2542 24.1577
a 2555 2556 690.3515
a 2555 2823 16.105
a 2556 8622 4.464
a 2556 2554 5.7168
a 2556 2555 16.2396
a 2556 427 7.5571
a 2557 432 4.5331
a 2557 13137 5.1559
a 2558 8118 4.3344
a 2558 2559 11.4761
a 2558 9851 332.1111
a 2559 2536 8.275
a 2559 11398 8.8963
a 2559 2558 103.8332
a 2560 106 2.039
a 2560 11698 3.4416
a 2560 13025 12.7289
a 2561 84 14.7331
a 2561 85 3.5669
a 2562 711 10.3162
a 2563 7744 19.6855
a 2563 81 4.4352
a 2564 2538 4.536
a 2564 2820 5.2488
a 2564 2568 11.6122
a 2565 2566 4.3949
a 2565 2822 4.9414
a 2566 2565 4.3949
a 2566 2567 4.397
a 2566 2552 4.4813
a 2567 2566 36.5233
a 2567 2548 14.1422
a 2567 2539 154.653
a 2567 8120 5.004
a 2568 158 4.9255
a 2568 2818 5.2006
a 2568 2564 11.6122
a 2569 8228 4.0997
a 2569 2570 4.7261
a 2569 415 13.284
a 2570 2569 4.7261
a 2570 417 4.4856
a 2570 2541 15.1517
a 2571 11097 0.8021
a 2571 2572 3.9802
a 2572 165 27.4306
a 2573 2574 5.6066
a 2573 1876 18.2779
a 2573 7394 0.9475
a 2574 3879 4.7786
a 2574 3815 487.3788
a 2574 2573 5.6066
a 2575 3879 3.1702
a 2576 2577 208.1538
a 2576 2581 4.1983
a 2576 11541 294.5109
a 2577 2576 9.6732
a 2577 2580 102.3232
a 2577 9820 4.2948
a 2578 3838 5.369
a 2578 3720 5.4605
a 2578 3700 7.6385
a 2579 4068 3.888
a 2579 11661 8.604
a 2579 3647 4.7844
a 2580 2587 9.2154
a 2580 2577 4.235
a 2580 2581 9.7574
a 2580 4068 4.0133
a 2581 2580 9.7574
a 2581 2576 4.1983
a 2581 2586 3.343
a 2581 2582 13.3884
a 2582 2584 3.0348
a 2582 2581 62.5776
a 2582 2585 14.3287
a 2583 3912 2.5603
a 2584 2582 23.1134
a 2584 3912 3.6374
a 2584 13176 13.9003
a 2585 2582 14.3287
a 2586 2581 3.343
a 2586 13176 12.7312
a 2586 2587 10.0584
a 2587 3838 3.9982
a 2587 2580 3.4142
a 2587 2586 10.0584
a 2588 7018 3.2076
a 2588 2589 49.6529
a 2588 2196 7.3094
a 2589 1802 182.8327
a 2589 2588 297.9293
a 2590 3662 6.3274
a 2590 4088 3.6763
a 2591 2592 6.2323
a 2591 3738 1.0519
a 2591 11976 3.2069
a 2592 2591 6.2323
a 2592 2594 4.1717
a 2592 7018 3.9715
a 2593 11976 29.1748
a 2593 2594 6.2417
a 2593 2595 4.0853
a 2594 2596 3.9744
a 2594 2592 4.1717
a 2594 2593 6.2417
a 2595 2596 6.2158
a 2595 10044 0.2981
a 2595 2593 4.0853
a 2596 2595 24.8058
a 2596 2594 3.9744
a 2596 3987 16.8679
a 2597 3623 4.2811
a 2597 2598 27.2371
a 2597 2198 2.9254
a 2597 1806 3.973
a 2598 2597 53.1945
a 2598 2599 4.1191
a 2599 1806 6.3698
a 2599 2590 4.091
a 2600 2603 3.9319
a 2600 2601 5.297
a 2600 11976 5.688
a 2601 3928 4.117
a 2601 2600 50.1434
a 2601 12758 9.9022
a 2602 12652 0.599
a 2602 3966 4.4921
a 2602 11089 8.3966
a 2603 2600 3.9319
a 2603 3806 4.7102
a 2603 3973 5.0422
a 2603 2604 4.217
a 2604 3922 10.1348
a 2604 3626 3.551
a 2604 2605 4.135
a 2604 2603 4.217
a 2605 2190 10.2161
a 2605 1808 10.1851
a 2605 2606 8.2058
a 2605 2604 4.135
a 2606 3616 13.2848
a 2606 3881 3.8246
a 2606 2605 8.2058
a 2607 2613 6.7248
a 2607 2623 5.0681
a 2607 2614 17.4982
a 2608 2744 18.8626
a 2609 2613 4.8665
a 2609 2746 10.0786
a 2609 12528 3.6364
a 2609 2744 5.1941
a 2610 2611 4.4698
a 2611 2612 20.425
a 2611 2610 4.4698
a 2611 2625 5.881
a 2612 11971 34.0106
a 2612 2611 20.425
a 2612 2625 17.964
a 2613 2609 148.6946
a 2613 13204 54.6048
a 2613 2607 6.7248
a 2614 2615 2.25
a 2614 2607 17.4982
a 2614 2624 18.3485
a 2614 2627 136.6048
a 2615 2614 2.25
a 2616 2619 1.2614
a 2617 7056 6.467
a 2617 2618 3.3718
a 2618 2617 3.3718
a 2619 7060 3.9866
a 2619 2616 1.2614
a 2620 7058 6.7831
a 2620 7057 10.0858
a 2621 2622 7.1755
a 2621 2624 8.7142
a 2621 7058 4.8996
a 2622 2621 7.1755
a 2622 2624 4.0162
a 2622 2623 8.3707
a 2623 2607 5.0681
a 2623 2187 16.3714
a 2623 2622 8.3707
a 2623 2742 16.5101
a 2624 2621 8.7142
a 2624 2622 4.0162
a 2624 2614 131.2339
a 2625 12529 21.6907
a 2625 2611 71.8801
a 2625 2627 7.1957
a 2625 2612 17.964
a 2626 2627 16.2763
a 2627 2626 16.2763
a 2627 2625 7.1957
a 2627 2614 5.081
a 2628 2629 3.7699
a 2628 2630 348.4177
a 2629 880 36.4388
a 2629 2639 264.7885
a 2630 2639 3.8592
a 2630 7024 3.7058
a 2630 2628 12.7426
a 2630 9658 10.1275
a 2631 887 8.7055
a 2631 9293 5.238
a 2631 9662 18.6214
a 2631 2639 4.2948
a 2632 7917 0.9583
a 2632 2647 21.5604
a 2632 2646 26.3822
a 2633 2635 4.4136
a 2633 2151 4.7657
a 2633 2646 27.0504
a 2634 2669 15.396
a 2634 2635 4.873
a 2634 8707 9.383
a 2635 2633 25.8692
a 2635 2663 9.347
a 2635 2634 172.6074
a 2635 2658 4.4546
a 2636 11811 1.7316
a 2636 2637 4.5626
a 2636 2645 20.6251
a 2637 2638 20.713
a 2637 8824 4.0313
a 2637 2636 4.5626
a 2638 2637 20.713
a 2638 2644 4.4035
a 2638 13193 3.3854
a 2638 2641 13.8542
a 2639 2630 112.4086
a 2639 2629 12.613
a 2639 2631 4.2948
a 2639 9662 8.9474
a 2640 2641 4.8557
a 2640 2658 9.1015
a 2640 2645 13.4978
a 2641 2659 9.1008
a 2641 2640 4.8557
a 2641 2638 13.8542
a 2641 2642 32.8766
a 2642 2661 8.015
a 2642 2644 513.5723
a 2642 2641 7.655
a 2643 2652 4.3603
a 2643 8824 0.4709
a 2643 2644 146.4841
a 2644 2638 53.5127
a 2644 2651 4.3222
a 2644 2643 20.8332
a 2644 2642 9.4687
a 2645 2646 4.428
a 2645 12930 0.9482
a 2645 2640 13.4978
a 2645 2636 20.6251
a 2646 2645 4.428
a 2646 2647 4.6411
a 2646 2633 27.0504
a 2646 2632 26.3822
a 2647 2148 1.0843
a 2647 2646 4.6411
a 2647 2151 27.0994
a 2648 2652 128.1421
a 2648 2653 9.6768
a 2648 2649 144.9068
a 2648 8922 220.1173
a 2649 2656 7.8386
a 2649 2653 42.3382
a 2649 2648 13.613
a 2650 2651 4.5907
a 2650 2657 4.7354
a 2650 10287 8.2555
a 2651 2644 4.3222
a 2651 2650 4.5907
a 2651 2652 19.8979
a 2652 2648 4.379
a 2652 2643 4.3603
a 2652 2651 19.8979
a 2653 2648 9.6768
a 2653 2657 4.343
a 2653 2649 5.0062
a 2654 2681 15.7579
a 2654 2675 6.7558
a 2654 2656 4.716
a 2655 12100 13.1051
a 2655 2656 5.6347
a 2655 2657 12.4654
a 2656 2649 7.8386
a 2656 2654 22.7283
a 2656 2655 5.6347
a 2657 2653 4.343
a 2657 2650 4.7354
a 2657 2655 12.4654
a 2658 2659 4.842
a 2658 2640 9.1015
a 2658 2635 4.4546
a 2659 2660 4.4525
a 2659 2658 4.842
a 2659 2641 9.1008
a 2660 2659 129.9869
a 2660 2661 15.2446
a 2660 2663 5.3669
a 2661 12919 0.7733
a 2661 2642 25.0177
a 2661 2660 15.2446
a 2662 3846 1.1542
a 2662 11294 5.3568
a 2662 2689 5.0983
a 2663 11603 15.1834
a 2663 2635 9.347
a 2663 8707 5.0882
a 2663 2660 5.3669
a 2664 2665 3.4855
a 2664 8706 5.6038
a 2664 2701 22.6059
a 2665 2664 3.4855
a 2665 2702 33.14
a 2665 2703 7.9502
a 2666 8687 2.3377
a 2666 2700 4.4993
a 2666 2703 4.6555
a 2667 2700 4.5072
a 2667 2698 13.1018
a 2667 11362 5.1178
a 2668 8697 10.9368
a 2668 8696 2.4206
a 2668 2699 6.6226
a 2669 8697 4.9478
a 2669 2634 3.6036
a 2669 2149 5.5058
a 2670 10286 1.116
a 2670 2671 8.4254
a 2670 4129 20.2392
a 2670 8691 85.751
a 2671 10931 6.5153
a 2671 8348 12.8822
a 2671 3824 13.3488
a 2671 2670 8.4254
a 2672 13190 0.7229
a 2672 3915 3.335
a 2672 11604 6.0703
a 2673 11294 1.6481
a 2674 3214 42.1584
a 2674 12434 0.9079
a 2674 3213 3.6706
a 2675 2654 6.7558
a 2675 2683 7.8998
a 2675 3213 183.8059
a 2676 2677 4.77
a 2676 2719 12.996
a 2676 3917 9.2887
a 2677 2676 4.77
a 2677 8918 3.7915
a 2677 3977 8.2331
a 2678 8361 0.4457
a 2678 3952 210.1766
a 2678 11967 8.2123
a 2679 13209 0.5933
a 2679 2680 2.7871
a 2679 8361 1.8504
a 2680 10963 7.2655
a 2680 8921 17.3851
a 2680 2679 2.7871
a 2681 3977 6.102
a 2681 2654 15.7579
a 2681 2712 4.4726
a 2682 2713 11.147
a 2682 2712 4.3452
a 2682 2714 17.1468
a 2683 2711 4.7268
a 2683 10289 14.4742
a 2683 2675 7.8998
a 2684 4037 4.7815
a 2684 3727 4.7038
a 2684 2685 22.235
a 2684 4022 13.7218
a 2685 2684 22.235
a 2685 3677 4.3632
a 2685 12050 12.6785
a 2686 2687 2.9866
a 2686 11294 2.1996
a 2686 3915 13.4669
a 2687 2686 82.6421
a 2688 11221 7.5449
a 2688 11194 1.175
a 2688 2689 4.4532
a 2689 2662 5.0983
a 2689 2688 4.4532
a 2689 11193 1.0483
a 2689 2690 11.3789
a 2690 2689 11.3789
a 2691 8349 1.0418
a 2691 3740 98.6068
a 2691 2692 6.4217
a 2692 12509 0.5148
a 2692 2691 6.4217
a 2692 2693 4.6174
a 2693 2694 5.3201
a 2693 2692 4.6174
a 2693 2695 11.3875
a 2694 2699 4.6354
a 2694 11361 7.303
a 2694 2693 5.3201
a 2695 2697 16.6299
a 2695 2693 11.3875
a 2695 4071 36.1339
a 2695 3664 6.637
a 2696 3664 5.5382
a 2697 12607 0.3046
a 2697 11362 6.3864
a 2697 2695 150.0518
a 2698 2699 106.1353
a 2698 2701 11.6328
a 2698 2667 13.1018
a 2699 2698 4.7117
a 2699 2694 59.087
a 2699 2668 6.6226
a 2699 8698 11.1298
a 2700 2666 4.4993
a 2700 2667 4.5072
a 2700 2701 13.8607
a 2701 2700 13.8607
a 2701 2664 4.6872
a 2701 2698 1.5214
a 2702 2704 4.392
a 2702 2665 8.2447
a 2702 2703 9.0526
a 2703 2702 9.0526
a 2703 2666 4.6555
a 2703 2665 7.9502
a 2704 2702 4.392
a 2704 8706 12.4891
a 2704 8687 1409.4016
a 2705 12857 3.5575
a 2705 2706 3.9773
a 2705 8691 30.5351
a 2706 2150 16.5082
a 2706 3798 7.6133
a 2706 2707 2.4005
a 2706 2705 3.9773
a 2707 13207 53.287
a 2707 3653 3.6929
a 2707 2706 34.3824
a 2708 2795 4.0313
a 2708 3655 36.3125
a 2709 8557 3.4891
a 2709 11461 6.2705
a 2709 8693 14.5447
a 2710 2783 3.839
a 2710 2782 7.1921
a 2710 2795 17.2786
a 2711 2714 4.9601
a 2711 2712 18.2722
a 2711 2683 4.7268
a 2712 2682 4.3452
a 2712 2681 4.4726
a 2712 11983 16.956
a 2712 2711 18.2722
a 2713 2716 199.1995
a 2713 11983 34.6406
a 2714 2711 4.9601
a 2714 2715 5.2114
a 2714 2682 17.1468
a 2715 2714 5.2114
a 2715 2716 19.7791
a 2716 7063 31.7658
a 2716 2713 6.2035
a 2717 2780 7.9488
a 2717 10289 6.1913
a 2717 2718 18.7603
a 2718 3788 3.7109
a 2718 12170 10.5329
a 2718 2717 135.625
a 2719 7406 80.9857
a 2719 2676 12.996
a 2719 2720 16.4527
a 2720 2719 16.4527
a 2720 3971 7.5146
a 2720 9681 5.7946
a 2721 3625 5.2726
a 2721 3316 43.4707
a 2722 2724 105.7068
a 2723 10924 1.0721
a 2723 11772 6.2755
a 2723 8832 20.1629
a 2724 11772 39.6832
a 2724 2725 5.2661
a 2724 2722 9.7999
a 2724 8590 7.6298
a 2725 2724 5.2661
a 2725 2726 8.0662
a 2725 2732 8.4636
a 2726 8590 4.4719
a 2726 2728 12.6886
a 2726 2727 19.2816
a 2726 2725 8.0662
a 2727 2728 3.2386
a 2727 2729 4.806
a 2727 2726 19.2816
a 2728 2727 3.2386
a 2728 12403 0.4349
a 2728 2726 12.6886
a 2729 2727 4.806
a 2729 9680 7.9897
a 2729 3628 14.6326
a 2730 3628 4.2466
a 2730 2731 4.6728
a 2730 3939 6.5506
a 2731 3775 4.2041
a 2731 4042 2.3681
a 2731 2730 4.6728
a 2732 2725 8.4636
a 2732 9716 2.857
a 2732 2733 8.1734
a 2733 12089 0.7589
a 2733 3618 11.1715
a 2733 2752 4.1162
a 2733 2732 33.5663
a 2734 9719 0.3982
a 2734 12320 34.2607
a 2734 4092 4.7844
a 2735 2738 3.0816
a 2735 3986 38.2861
a 2735 4060 3.8635
a 2736 4008 8.0374
a 2736 3656 6.9883
a 2736 3809 4.3186
a 2736 3616 13.7174
a 2737 7043 4.5914
a 2737 3730 5.4792
a 2737 2741 280.6632
a 2738 3622 4.2242
a 2738 4008 3.0737
a 2738 2735 3.0816
a 2739 3622 3.991
a 2739 2187 4.4129
a 2739 9481 10.9584
a 2739 2194 10.2845
a 2740 3730 246.4079
a 2740 3821 4.3366
a 2740 1807 13.5173
a 2740 9481 154.474
a 2741 2187 10.8274
a 2741 9481 14.4871
a 2741 2737 11.3018
a 2741 7043 17.8142
a 2742 2745 12.1284
a 2742 2623 3.965
a 2742 11450 45.2945
a 2743 13420 1.5329
a 2744 2609 5.1941
a 2744 2608 18.8626
a 2744 2745 26.9368
a 2744 9726 382.0223
a 2745 13420 7.848
a 2745 2742 12.1284
a 2745 2744 9.4262
a 2746 11306 0.3139
a 2746 2747 47.4307
a 2746 2609 10.0786
a 2747 8997 0.6797
a 2747 8998 0.8208
a 2747 865 5.2171
a 2747 2746 14.639
a 2748 2749 14.3454
a 2748 3736 0.9626
a 2748 868 14.8486
a 2749 2748 3.9146
a 2749 11305 0.4961
a 2749 3744 15.4591
a 2750 9715 14.0028
a 2750 12319 6.2328
a 2750 7936 4.3517
a 2751 4090 4.8485
a 2752 13230 3.0787
a 2752 2753 5.0472
a 2752 2733 4.1162
a 2753 4087 2.7115
a 2753 2754 7.794
a 2753 2752 5.0472
a 2754 9383 4.4201
a 2754 4078 2.9851
a 2754 2753 7.794
a 2755 4023 8.3412
a 2755 4078 5.0717
a 2755 4073 11.7763
a 2756 3882 3.69
a 2756 3804 7.8617
a 2756 3735 8.7163
a 2757 400 1.1261
a 2757 12387 0.7862
a 2757 399 2.9678
a 2758 7631 1.6531
a 2758 7939 273.459
a 2758 3624 7.8833
a 2759 2760 196.9869
a 2759 866 1.9073
a 2760 10928 3.1781
a 2761 9331 254.5231
a 2762 3602 6.732
a 2762 5337 63.3152
a 2763 149 0.6538
a 2763 12812 6.403
a 2764 1630 5.1732
a 2764 1615 5.5908
a 2764 1575 8.9726
a 2764 1613 15.5153
a 2765 2461 8.3808
a 2766 9431 2.7058
a 2766 7749 22.8412
a 2767 7735 6.0343
a 2768 3058 23.4814
a 2768 13619 5.0148
a 2768 9708 8.4866
a 2769 11394 3.0406
a 2769 9597 7.9214
a 2769 9598 7.7544
a 2769 12770 6.0206
a 2770 1283 34.7032
a 2770 1287 9.9137
a 2771 1303 11.5237
a 2771 1311 3.2573
a 2771 1309 7.1266
a 2771 1308 68.5091
a 2772 1318 7.2454
a 2772 1319 6.7464
a 2773 928 3.2494
a 2773 949 3.2551
a 2773 945 10.7158
a 2773 943 6.894
a 2774 1423 4.3106
a 2774 1427 207.9934
a 2774 1426 38.8825
a 2775 1624 5.2625
a 2775 1626 5.0962
a 2775 4094 5.4886
a 2775 1612 19.3932
a 2776 880 283.6075
a 2776 887 193.4461
a 2776 7025 3.8678
a 2776 891 4.0349
a 2777 8511 13.4827
a 2777 8717 6.4375
a 2778 1655 4.6663
a 2778 1857 4.1004
a 2779 2801 4.7304
a 2779 9745 2.8937
a 2780 2781 30.0806
a 2780 11742 2.5308
a 2780 2717 7.9488
a 2781 2780 3.8074
a 2781 2785 3.5928
a 2781 3788 22.4028
a 2782 2710 7.1921
a 2782 2785 2.9225
a 2782 8999 13.5057
a 2783 2787 12.6882
a 2783 2710 3.839
a 2783 2786 53.9268
a 2784 3888 12.4862
a 2784 3754 11.1154
a 2784 3772 4.0522
a 2784 12435 5.5786
a 2785 2782 20.3878
a 2785 2781 3.5928
a 2785 2788 20.0261
a 2786 2795 3.7642
a 2786 2783 833.4649
a 2786 2793 18.707
a 2786 2789 3.8477
a 2787 2783 3.7987
a 2787 12153 0.9022
a 2787 2788 3.9442
a 2788 2787 3.9442
a 2788 3788 5.6354
a 2788 2785 20.0261
a 2788 3933 13.7354
a 2789 2791 3.9024
a 2789 2786 3.8477
a 2789 12928 43.3935
a 2790 8375 11.1371
a 2790 3666 15.9948
a 2790 10040 18.7
a 2791 2789 3.9024
a 2791 3933 1.9354
a 2791 3666 14.9772
a 2792 3655 3.8952
a 2792 2150 132.5487
a 2792 2793 7.9337
a 2792 3653 13.7304
a 2793 4050 3.3106
a 2793 2792 7.9337
a 2793 2786 18.707
a 2794 13208 3.9989
a 2794 8557 3.7598
a 2794 11462 42.5878
a 2794 12857 13.5713
a 2795 2708 30.967
a 2795 2786 3.7642
a 2795 10290 1.9253
a 2795 2710 207.2635
a 2796 11322 2.8022
a 2796 13256 30.415
a 2797 2798 2.345
a 2797 126 1.1059
a 2797 13598 0.9821
a 2798 2797 2.345
a 2798 128 7.5514
a 2798 119 140.1561
a 2799 498 5.6462
a 2799 10123 5.0551
a 2800 13371 0.751
a 2800 2765 3.5662
a 2801 1856 3.5496
a 2801 2779 4.7304
a 2801 2802 4.6944
a 2802 2801 4.6944
a 2802 1856 6.8098
a 2803 12877 1.89
a 2803 12821 2.0902
a 2803 8275 8.771
a 2804 10827 9.2326
a 2804 11960 0.9511
a 2804 7801 1.2924
a 2805 10263 0.4853
a 2805 12908 1.4645
a 2805 4621 29.039
a 2806 2807 1.6229
a 2806 12904 1.0958
a 2806 13103 32.1221
a 2807 2806 55.1278
a 2807 8519 4.8607
a 2807 2809 31.8845
a 2808 11233 0.4723
a 2808 12911 59.0893
a 2808 2805 23.2877
a 2809 11356 322.3969
a 2809 2508 161.2894
a 2810 3059 2.6626
a 2810 2414 39.7859
a 2810 2171 11.3594
a 2810 2170 11.2601
a 2811 2414 11.3566
a 2811 8948 12.0269
a 2811 2171 2.8958
a 2811 2812 2.6899
a 2812 2413 11.3357
a 2812 8947 13.7484
a 2812 2811 35.2437
a 2813 2817 4.5036
a 2813 2954 315.6771
a 2813 2814 4.4035
a 2813 2553 301.236
a 2814 2912 130.0065
a 2814 2818 46.088
a 2814 2813 4.4035
a 2814 2544 16.2194
a 2815 2838 4.3322
a 2815 8133 9.3355
a 2816 2817 5.0846
a 2816 7747 6.2309
a 2816 2551 23.7802
a 2816 173 27.2902
a 2817 2816 5.0846
a 2817 2813 4.5036
a 2817 419 16.4578
a 2817 171 29.8411
a 2818 2819 1.9332
a 2818 2568 5.2006
a 2818 2814 4.7434
a 2819 2818 6.2647
a 2819 2821 4.9723
a 2819 2544 14.5008
a 2820 2821 4.9075
a 2820 2565 12.3746
a 2821 2819 106.5159
a 2821 2820 4.9075
a 2822 2565 4.9414
a 2822 2544 4.626
a 2822 2821 13.3891
a 2823 428 4.968
a 2823 431 4.0133
a 2823 2555 16.105
a 2824 3523 1.4998
a 2824 2966 78.4736
a 2824 156 10.6236
a 2825 2826 11.6424
a 2825 12275 1.7734
a 2826 2827 2.9311
a 2826 2825 11.6424
a 2826 3526 23.2956
a 2827 9319 11.1622
a 2827 2828 5.1422
a 2827 2826 2.9311
a 2827 2964 14.819
a 2828 9318 11.3983
a 2828 3041 4.6296
a 2828 2827 5.1422
a 2828 2832 5.0422
a 2829 8038 5.0342
a 2829 8040 12.1003
a 2830 2829 5.1372
a 2831 8127 4.482
a 2831 1529 80.4269
a 2831 2830 5.5634
a 2832 2828 5.0422
a 2832 3071 5.1034
a 2832 2833 15.7169
a 2833 2834 4.3337
a 2833 8133 5.0148
a 2833 2948 5.0666
a 2833 2832 15.7169
a 2834 2835 4.5958
a 2834 2833 4.3337
a 2835 2836 4.4064
a 2835 2834 4.5958
a 2835 2840 16.2605
a 2836 2837 20.2601
a 2836 2835 4.4064
a 2837 2836 2.3522
a 2837 2867 5.0573
a 2837 2845 48.5831
a 2838 2840 4.6318
a 2838 2815 4.3322
a 2838 2834 15.2798
a 2839 2842 4.4698
a 2839 8127 4.4806
a 2840 2841 4.4273
a 2840 2838 4.6318
a 2840 2839 21.7267
a 2841 2844 4.7714
a 2841 2840 11.1534
a 2841 2836 17.0978
a 2842 2843 4.9932
a 2842 2839 4.4698
a 2842 2841 22.8053
a 2843 2842 4.9932
a 2843 159 5.8486
a 2844 107 5.881
a 2844 2841 28.6399
a 2844 2843 24.0026
a 2845 2844 45.8202
a 2845 2837 4.3042
a 2845 109 6.1747
a 2846 158 4.7585
a 2846 3144 4.5007
a 2846 2930 17.5752
a 2847 2864 7.1921
a 2847 2959 2.8109
a 2848 2965 16.843
a 2848 3010 45.376
a 2848 3024 3.6922
a 2849 2132 4.073
a 2849 7636 1.1246
a 2849 2973 9.355
a 2850 3107 37.8967
a 2850 3063 7.1518
a 2850 2890 3.9046
a 2851 3029 69.5367
a 2851 539 15.4354
a 2851 3134 9.8021
a 2852 2936 3.9197
a 2852 3152 87.3632
a 2852 3069 3.5143
a 2853 2164 11.2205
a 2853 2159 11.3875
a 2853 2895 2.6755
a 2853 3139 2.8966
a 2854 2897 7.6241
a 2854 2968 13.5806
a 2854 3337 9.265
a 2855 576 1.6481
a 2855 2879 191.4458
a 2855 578 4.8758
a 2856 10813 0.7034
a 2856 2884 6.2906
a 2856 2922 14.4439
a 2857 2861 4.747
a 2857 3077 4.7585
a 2857 2935 26.5154
a 2858 10061 4.225
a 2858 1077 344.6848
a 2858 1079 12.2083
a 2859 3014 5.6146
a 2859 3143 4.0846
a 2859 4442 18.1656
a 2860 2869 12.8887
a 2860 11085 5.0227
a 2860 3039 8.1526
a 2861 3063 4.464
a 2861 2857 4.747
a 2861 10063 26.2188
a 2862 1321 4.788
a 2862 3017 17.6259
a 2862 2911 7.4945
a 2863 2137 6.2381
a 2863 2905 3.4416
a 2863 7634 3.6706
a 2863 2129 7.3339
a 2864 2906 2.6222
a 2864 3117 11.2853
a 2864 2158 2.7828
a 2865 3162 14.917
a 2865 2950 3.8311
a 2865 2489 3.7814
a 2866 2969 4.8859
a 2866 3103 18.8172
a 2867 2945 4.3726
a 2867 2837 5.0573
a 2868 3038 68.372
a 2868 9484 14.4497
a 2868 4489 164.6939
a 2869 2901 1.4954
a 2869 2860 12.8887
a 2869 3039 474.6728
a 2870 10353 1.0901
a 2870 7028 10.0325
a 2870 4715 3.5143
a 2871 4077 1.1743
a 2871 3652 2.2788
a 2871 3123 3.3487
a 2872 7689 332.3984
a 2872 7649 9.3326
a 2873 2908 1.1844
a 2873 3045 5.1602
a 2873 3072 6.2921
a 2874 2427 4.6944
a 2874 2418 137.2276
a 2874 3078 7.7674
a 2875 2866 4.6685
a 2876 2902 4.4669
a 2876 2941 4.4957
a 2876 12912 1.1218
a 2876 2493 20.831
a 2877 2401 39.5292
a 2877 2390 5.9083
a 2877 2400 13.0673
a 2878 2489 4.41
a 2878 12898 0.9842
a 2878 3112 13.4359
a 2879 3323 28.1753
a 2879 2855 18.0821
a 2879 3039 7.2914
a 2880 2153 2.767
a 2880 2959 3.4157
a 2880 2152 1.7388
a 2881 2995 4.7765
a 2881 3103 4.4201
a 2881 2969 21.5424
a 2882 2931 4.5864
a 2882 3036 29.0597
a 2882 3004 3.4265
a 2883 3143 12.0492
a 2883 4442 9.8294
a 2883 3109 6.4404
a 2884 2856 15.5556
a 2884 1070 12.1702
a 2884 3149 40.55
a 2885 3070 5.1466
a 2885 3013 8.8942
a 2885 68 16.0603
a 2886 7678 3.1637
a 2886 7676 3.3768
a 2886 8046 5.4994
a 2887 2974 3.7519
a 2887 2936 27.3542
a 2887 3152 3.8196
a 2888 3909 5.8183
a 2888 11714 7.5103
a 2888 3089 3.325
a 2889 2985 36.5023
a 2889 3141 4.2034
a 2889 2898 12.1932
a 2889 2992 17.0244
a 2890 2850 3.9046
a 2890 2908 3.7526
a 2891 2156 53.2512
a 2891 2434 10.3126
a 2891 2938 2.6698
a 2892 3099 13.8298
a 2892 2442 171.0022
a 2892 10068 383.8955
a 2893 734 2.299
a 2893 10751 5.4151
a 2894 3127 2.3926
a 2894 3161 3.9571
a 2894 3065 9.1908
a 2895 2410 11.2968
a 2895 2853 2.6755
a 2895 2411 11.3328
a 2895 2408 13.5828
a 2896 2999 5.3201
a 2896 3013 8.951
a 2897 3076 13.4957
a 2897 2854 7.6241
a 2897 3108 5.5519
a 2898 3017 7.4052
a 2898 2889 12.1932
a 2898 1267 4.7909
a 2898 2911 4.1465
a 2899 3016 21.3228
a 2899 12735 3.0672
a 2899 12736 0.6588
a 2899 2998 9.3247
a 2900 3034 2.97
a 2900 2404 2.2291
a 2900 3147 3.1378
a 2901 1077 7.0524
a 2901 2869 1.4954
a 2901 1078 17.1504
a 2902 2876 4.4669
a 2902 3024 16.4794
a 2902 2940 3.803
a 2903 3208 7.8113
a 2903 2982 13.1458
a 2903 1714 3.191
a 2904 583 5.8975
a 2904 586 5.899
a 2904 582 9.3103
a 2905 2130 5.4792
a 2905 2136 6.3194
a 2905 7635 3.5208
a 2905 2863 3.4416
a 2906 2864 2.6222
a 2906 2847 9.5508
a 2907 3003 12.2314
a 2907 2947 4.6908
a 2907 9105 4.5281
a 2908 2873 1.1844
a 2908 3320 8.7264
a 2908 2890 3.7526
a 2909 3125 612.0278
a 2909 3144 4.2523
a 2909 2912 5.9126
a 2909 87 4.8838
a 2910 2989 3.8174
a 2910 3162 3.7555
a 2910 2950 14.8903
a 2911 3141 11.9498
a 2911 2862 109.7013
a 2911 2898 4.1465
a 2911 1250 4.7606
a 2912 2954 262.9595
a 2913 12443 3.7692
a 2914 3004 13.1342
a 2914 3004 10.3198
a 2914 3045 2.8476
a 2915 11540 4.8312
a 2915 2144 3.6554
a 2915 2111 15.3238
a 2916 3021 3.2616
a 2916 3043 3.3257
a 2916 3123 8.2613
a 2917 2536 16.0834
a 2917 7255 10.4738
a 2917 3090 6.4231
a 2918 138 6.2071
a 2918 156 4.5691
a 2919 2957 3.3178
a 2920 8951 7.7767
a 2920 3062 11.0566
a 2920 8952 2.9477
a 2921 2392 12.767
a 2921 3082 4.1566
a 2921 3034 5.3489
a 2922 2993 5.5051
a 2922 2856 14.4439
a 2922 3070 5.3928
a 2923 3135 14.4979
a 2923 748 328.6748
a 2923 394 0.9194
a 2924 3119 9.365
a 2924 9688 4.0435
a 2924 3107 34.5175
a 2925 3914 7.4189
a 2925 3129 7.9027
a 2925 10956 14.9926
a 2926 1073 5.5087
a 2926 11869 52.8664
a 2926 1079 31.5353
a 2927 3104 4.4618
a 2927 3094 6.7334
a 2927 3121 4.2948
a 2928 3909 1.5725
a 2928 4062 10.4443
a 2928 3853 8.4931
a 2929 13016 0.504
a 2929 1497 1.453
a 2930 2538 8.4974
a 2930 2846 17.5752
a 2931 2987 43.0813
a 2931 3045 6.9034
a 2931 2882 4.5864
a 2932 3145 4.338
a 2932 3067 20.8339
a 2932 11982 687.2193
a 2933 12878 0.6084
a 2933 3031 30.3523
a 2933 9392 4.4669
a 2934 4962 9.6242
a 2934 2893 19.0454
a 2935 10063 3.3581
a 2935 2960 2.61
a 2935 2857 26.5154
a 2936 2852 9.8903
a 2936 3097 3.7922
a 2936 2887 27.3542
a 2937 3088 16.6416
a 2937 1868 4.1465
a 2937 11044 47.3975
a 2938 2433 10.5458
a 2938 2975 2.6921
a 2938 2891 2.6698
a 2939 4000 6.1711
a 2939 3831 6.611
a 2939 3985 4.4294
a 2939 3770 19.53
a 2940 3140 3.9132
a 2940 3120 372.62
a 2940 2902 129.309
a 2941 2876 4.4957
a 2941 3038 44.0212
a 2941 9484 14.6146
a 2942 3139 56.9362
a 2943 10556 5.747
a 2943 8433 3.2206
a 2944 3088 4.0061
a 2944 3030 7.7558
a 2944 1870 5.7326
a 2945 2867 4.3726
a 2945 3128 11.3904
a 2945 3046 5.8126
a 2946 3141 18.3805
a 2946 1250 11.8447
a 2947 2397 15.1819
a 2947 2396 3.7289
a 2947 2907 4.6908
a 2948 2833 5.0666
a 2948 3049 4.8002
a 2948 3071 13.3639
a 2948 3023 13.2394
a 2949 9890 1.3212
a 2949 3170 4.5756
a 2949 3167 253.3949
a 2950 2865 3.8311
a 2950 3035 11.3085
a 2950 2910 14.8903
a 2951 3564 4.1623
a 2951 3549 11.9563
a 2951 3737 10.3781
a 2952 2953 20.1614
a 2952 588 22.6554
a 2952 576 5.459
a 2953 2952 89.8127
a 2953 1078 10.5638
a 2953 3039 3.5503
a 2954 2528 38.1722
a 2954 2813 28.8317
a 2955 3161 9.2304
a 2955 2427 7.8271
a 2955 3078 4.6786
a 2955 3065 4.8103
a 2956 4 8.5961
a 2956 12198 34.4354
a 2956 7687 1.6258
a 2957 2919 12.0211
a 2957 7647 3.4517
a 2957 7645 5.22
a 2957 3114 3.7879
a 2958 3087 3.9247
a 2958 3150 333.0099
a 2959 2158 7.1395
a 2959 2880 3.4157
a 2960 2935 2.61
a 2960 1127 2.3198
a 2960 3077 26.9734
a 2961 3009 28.004
a 2961 2113 3.7505
a 2961 2133 12.4236
a 2961 2132 10.1743
a 2962 3047 10.0318
a 2962 6980 6.21
a 2962 6981 13.9641
a 2963 8225 2.8922
a 2964 2827 14.819
a 2964 2995 5.2495
a 2964 154 20.3731
a 2965 2848 16.843
a 2965 3120 3.685
a 2965 3054 52.6648
a 2966 3103 5.0566
a 2966 2824 7.2605
a 2966 2875 1333.4626
a 2967 3161 4.1076
a 2967 3078 9.3348
a 2967 3007 12.0478
a 2968 3106 8.3441
a 2968 3011 3.3091
a 2968 3865 3.4279
a 2968 2854 13.5806
a 2969 3155 4.3718
a 2970 3914 14.1437
a 2970 8317 12.8052
a 2970 3837 9.6055
a 2971 3114 3.6173
a 2971 3080 3.9053
a 2972 3058 26.6673
a 2972 11074 19.7244
a 2973 3009 2.6957
a 2973 3115 13.5079
a 2973 2849 9.355
a 2974 2887 3.7519
a 2974 3097 124.2262
a 2974 3136 3.798
a 2975 2154 11.4077
a 2975 3033 2.6892
a 2975 2938 99.2769
a 2976 3064 5.431
a 2976 3110 4.8233
a 2976 10067 10.6222
a 2976 1068 49.6046
a 2977 10590 1.6862
a 2977 9210 4.1328
a 2977 4966 4.9817
a 2978 7522 4.639
a 2978 2985 10.4839
a 2978 3151 6.043
a 2979 3052 1.4422
a 2979 3018 243.914
a 2979 3150 4.0219
a 2980 3036 5.5829
a 2981 10262 0.4529
a 2981 2808 19.5314
a 2981 3024 4.477
a 2982 1680 87.7806
a 2982 1698 42.4837
a 2982 2903 3.4344
a 2983 10073 1.535
a 2983 279 16.9416
a 2984 8972 1.0613
a 2984 11075 10.3666
a 2985 2889 4.4136
a 2985 2978 10.4839
a 2985 1267 12.3991
a 2986 2427 4.793
a 2986 585 4.541
a 2986 3065 7.8941
a 2986 2424 10.7302
a 2987 2931 6.0854
a 2987 3072 14.4641
a 2987 3118 5.3921
a 2988 299 18.9158
a 2988 3098 21.2004
a 2988 3007 8.3858
a 2988 568 6.5974
a 2989 2910 3.8174
a 2989 3035 14.8651
a 2989 3061 3.5849
a 2990 2164 2.8073
a 2990 2165 2.7238
a 2990 3139 11.3782
a 2990 8952 15.6708
a 2991 8955 10.021
a 2991 6880 16.1347
a 2992 2889 17.0244
a 2992 3137 4.8348
a 2992 3151 4.2833
a 2993 3130 5.3446
a 2993 3113 17.9525
a 2993 2922 5.5051
a 2994 2126 3.6994
a 2994 7340 12.5208
a 2994 2143 8.5363
a 2995 3071 4.8859
a 2995 2881 4.7765
a 2995 2964 36.1904
a 2996 3016 12.109
a 2997 3074 6.4022
a 2997 3050 4.2487
a 2998 3077 4.9716
a 2998 1127 28.1455
a 2998 1133 23.2135
a 2998 2899 9.3247
a 2999 2896 134.9085
a 3000 7690 13.3308
a 3000 3345 7.3361
a 3000 3040 16.4203
a 3001 3142 12.5172
a 3001 9793 2.7828
a 3001 8973 8.3189
a 3002 8680 13.6642
a 3002 574 7.8379
a 3002 296 375.519
a 3003 2403 9.8705
a 3003 2398 3.7188
a 3003 2907 524.6478
a 3004 2914 10.3198
a 3004 2914 13.1342
a 3004 2882 16.845
a 3005 3044 67.9896
a 3005 1777 39.531
a 3005 3329 206.3856
a 3006 2133 3.6259
a 3006 3009 15.174
a 3006 3157 19.2211
a 3006 3858 5.1638
a 3007 3096 8.339
a 3007 2988 8.3858
a 3007 2967 12.0478
a 3007 298 18.769
a 3008 11938 1.9742
a 3008 1078 12.1738
a 3008 588 213.1735
a 3009 2973 2.6957
a 3009 2961 3.6958
a 3009 3006 15.174
a 3009 3057 3.7267
a 3010 3054 16.9258
a 3010 2848 223.9162
a 3010 3091 3.7678
a 3011 3694 8.3563
a 3011 2968 3.3091
a 3011 3840 3.3235
a 3012 2164 9.8136
a 3013 1077 6.4577
a 3013 3015 12.7894
a 3013 2885 8.8942
a 3014 3038 3.8491
a 3014 2859 5.6146
a 3014 4489 3.7685
a 3015 3013 12.7894
a 3016 2899 21.3228
a 3016 3099 6.4325
a 3016 2996 12.109
a 3017 2862 4.1789
a 3017 1320 4.9032
a 3017 2898 7.4052
a 3018 2979 6.8306
a 3018 2958 133.1354
a 3019 3130 1.17
a 3019 9688 0.6142
a 3019 68 52.043
a 3020 11859 7.0517
a 3020 1313 8.5097
a 3020 1314 14.0897
a 3021 4053 12.2976
a 3021 2916 3.2616
a 3021 3945 9.7331
a 3021 2146 6.4706
a 3022 1033 52.5834
a 3022 3132 3.4718
a 3022 7685 13.1465
a 3023 2867 2.4876
a 3024 2902 16.4794
a 3024 2848 3.6922
a 3024 3026 4.7556
a 3024 2981 4.477
a 3025 1673 4.9846
a 3025 1678 4.5086
a 3025 3158 27.062
a 3026 3066 8.0777
a 3026 3140 9.5465
a 3026 3024 4.7556
a 3027 3159 25.2994
a 3027 3047 4.8542
a 3027 566 21.8909
a 3028 7336 4.0594
a 3029 3166 5.6837
a 3029 2851 5.7809
a 3029 3146 15.2546
a 3030 2913 3.9658
a 3031 581 34.1935
a 3031 8682 5.0076
a 3031 7103 6.1848
a 3031 2933 30.3523
a 3032 3955 4.1018
a 3032 3116 16.8271
a 3032 12508 7.5794
a 3033 2431 11.039
a 3033 3068 2.9758
a 3033 2975 29.2492
a 3034 3075 11.0102
a 3034 2900 2.97
a 3034 2921 5.3489
a 3035 2989 159.7225
a 3035 3102 3.6655
a 3035 2950 3.7202
a 3036 2980 5.5829
a 3036 12735 40.9131
a 3036 2882 7.3908
a 3037 68 0.7243
a 3037 2890 15.3058
a 3037 9688 4.9939
a 3038 2941 14.1083
a 3038 3014 39.5842
a 3038 2868 21.492
a 3039 2869 38.2732
a 3039 2879 7.2914
a 3039 2953 3.5503
a 3039 2860 8.1526
a 3040 8578 4.8652
a 3040 3000 62.6529
a 3040 1032 26.3354
a 3041 3153 4.5864
a 3041 2828 4.6296
a 3042 1764 16.6732
a 3042 1759 7.4239
a 3042 13364 0.8172
a 3043 2916 27.7956
a 3043 3634 3.307
a 3043 3160 6.4296
a 3043 3076 8.3016
a 3044 3072 5.4518
a 3044 3005 17.5788
a 3044 3118 16.3649
a 3045 2873 5.1602
a 3045 2931 6.9034
a 3045 2914 2.8476
a 3046 7743 0.715
a 3046 2945 245.5741
a 3046 109 13.122
a 3047 3159 49.6903
a 3047 2962 10.0318
a 3047 3027 4.8542
a 3048 1132 4.8737
a 3048 10816 11.2932
a 3049 2948 4.8002
a 3049 2995 11.0657
a 3050 3134 28.4652
a 3050 3171 11.2666
a 3051 3732 209.963
a 3051 3089 6.0674
a 3051 3165 21.7426
a 3052 2979 1.4422
a 3053 8915 6.1085
a 3053 586 5.976
a 3053 584 13.1558
a 3054 3010 16.9258
a 3054 2965 3.78
a 3054 3126 3.8491
a 3055 3092 2.8123
a 3055 2153 67.3865
a 3056 7698 2.8361
a 3056 3527 18.5227
a 3057 3770 1.2629
a 3057 3955 558.1935
a 3057 3009 3.7267
a 3058 2768 23.4814
a 3058 9675 23.4648
a 3058 9873 8.5925
a 3058 2972 9.1008
a 3059 3163 11.3695
a 3059 3124 3.2335
a 3059 3100 28.7893
a 3059 2810 2.6626
a 3060 4053 2.2615
a 3061 2493 4.4611
a 3061 3073 10.0791
a 3061 2989 3.5849
a 3061 3102 14.8507
a 3062 8949 3.8138
a 3062 2920 3.4193
a 3062 8950 10.5818
a 3063 2861 4.464
a 3063 3093 25.9207
a 3063 2850 7.1518
a 3064 2976 5.431
a 3064 3130 19.9958
a 3064 3113 5.4583
a 3065 2894 100.658
a 3065 2986 7.8941
a 3065 2955 4.8103
a 3066 3120 3.9269
a 3066 3026 8.0777
a 3066 3140 9.6019
a 3067 1050 4.6591
a 3067 1066 4.3992
a 3067 1051 22.4935
a 3068 2158 11.3357
a 3068 3117 11.8368
a 3068 3033 2.9758
a 3068 612 11.3285
a 3069 4767 3.0449
a 3069 4748 27.4853
a 3069 2852 3.5143
a 3070 2884 9.4896
a 3070 2922 5.3928
a 3071 2832 130.767
a 3071 2995 4.8859
a 3071 2948 13.3639
a 3072 3044 5.4518
a 3072 2987 14.4641
a 3072 2873 6.2921
a 3073 3143 3.7346
a 3073 3061 3.7908
a 3073 3109 14.837
a 3074 2997 6.4022
a 3074 12014 1.2038
a 3074 3087 10.3687
a 3075 11949 1.8259
a 3075 3034 11.0102
a 3075 2405 5.4036
a 3076 3043 8.3016
a 3076 2897 13.4957
a 3076 3840 3.353
a 3076 3123 3.2976
a 3077 2857 4.7585
a 3077 2998 4.9716
a 3077 2960 26.9734
a 3078 2967 9.3348
a 3078 2955 4.6786
a 3078 12879 3.6878
a 3078 2874 7.7674
a 3079 7696 0.841
a 3079 13375 41.7046
a 3080 9885 8.0654
a 3080 3345 8.0388
a 3080 2971 3.9053
a 3081 1233 1.3097
a 3082 7662 2.1067
a 3082 2921 4.1566
a 3082 2410 12.0269
a 3083 2492 4.3927
a 3083 2490 16.938
a 3083 3126 3.6187
a 3084 3688 3.5597
a 3084 7915 6.2683
a 3084 3108 3.353
a 3084 3993 259.741
a 3085 1766 4.752
a 3085 1760 4.0442
a 3085 13483 0.5789
a 3085 13363 0.8798
a 3086 2492 43.8443
a 3086 2489 14.9429
a 3086 3162 3.7685
a 3087 3074 10.3687
a 3087 2997 4.0104
a 3088 2944 167.1829
a 3088 3156 3.7865
a 3088 2913 52.8403
a 3089 9669 8.1783
a 3089 2888 3.325
a 3089 7339 3.87
a 3089 3051 6.0674
a 3090 11073 83.9524
a 3090 2917 21.9712
a 3091 3126 16.9402
a 3091 2490 3.7937
a 3091 3010 3.7678
a 3092 2155 10.5602
a 3092 3055 2.8123
a 3093 1129 5.8954
a 3093 1128 3.2429
a 3093 3063 25.9207
a 3094 2927 6.7334
a 3094 3104 10.409
a 3094 3121 10.499
a 3095 2483 5.6995
a 3095 10071 6.3562
a 3095 2830 13.0982
a 3096 9392 0.5652
a 3096 3105 7.8934
a 3096 3007 8.339
a 3096 297 18.8554
a 3097 2936 3.7922
a 3097 3168 3.6605
a 3097 2974 988.5516
a 3098 2988 21.2004
a 3098 3172 22.6037
a 3098 568 26.5018
a 3099 3016 6.4325
a 3099 2892 5.2409
a 3099 10068 18.4853
a 3100 2165 11.3738
a 3100 3139 2.6921
a 3100 3059 2.8922
a 3101 2930 4.7052
a 3102 3109 3.8268
a 3102 3035 3.6655
a 3102 3061 14.8507
a 3103 2881 4.4201
a 3103 2966 5.0566
a 3104 2927 4.4618
a 3104 3094 93.8274
a 3104 3118 7.2907
a 3105 574 10.1506
a 3105 3096 7.8934
a 3105 8681 18.9043
a 3106 3694 16.6981
a 3106 4063 3.3214
a 3106 2968 8.3441
a 3107 2924 7.745
a 3107 10064 17.1446
a 3107 2850 3.3487
a 3108 3123 13.032
a 3108 2897 5.5519
a 3108 3084 3.353
a 3109 3102 3.8268
a 3109 3073 14.837
a 3109 2883 6.4404
a 3110 2976 4.8233
a 3110 10066 1.7899
a 3111 3148 9.5537
a 3111 3737 13.963
a 3111 3789 4.3402
a 3112 3168 4.4366
a 3112 2878 43.0591
a 3112 2491 5.8817
a 3113 10813 4.9889
a 3113 3064 5.4583
a 3113 2993 17.9525
a 3114 2971 3.6173
a 3114 8752 3.8333
a 3114 7678 11.551
a 3114 2957 3.7879
a 3115 7636 3.3473
a 3115 2127 6.7457
a 3115 2973 13.5079
a 3116 3737 38.3599
a 3116 3549 6.8926
a 3116 3978 12.1111
a 3116 3032 16.8271
a 3117 7358 2.7274
a 3117 3068 26.198
a 3117 3138 11.6035
a 3118 3104 7.2907
a 3118 3044 16.3649
a 3118 2987 5.3921
a 3119 2924 9.365
a 3119 10064 5.5231
a 3119 10067 1.4976
a 3120 3066 54.5323
a 3120 2940 13.0126
a 3120 2965 3.685
a 3120 2493 4.5158
a 3121 3094 35.3545
a 3121 3325 21.5352
a 3121 2927 15.4843
a 3122 11877 1.1527
a 3122 10583 2.1319
a 3122 4961 2.79
a 3122 8574 89.1803
a 3123 2916 8.2613
a 3123 3108 13.032
a 3123 2871 36.0699
a 3123 3076 3.2976
a 3124 3059 3.2335
a 3125 3101 4.5756
a 3125 2539 21.0607
a 3125 2909 15.8227
a 3126 3091 16.9402
a 3126 3054 13.583
a 3126 3083 3.6187
a 3127 2894 24.6795
a 3127 8915 4.5835
a 3127 2933 48.358
a 3128 2918 58.6046
a 3129 2925 7.9027
a 3129 926 1.1059
a 3129 3564 15.4764
a 3130 2993 5.3446
a 3130 3019 1.17
a 3130 3064 19.9958
a 3131 3149 4.873
a 3132 3022 3.4718
a 3132 1034 2.7166
a 3133 2155 2.556
a 3133 9928 3.3574
a 3133 3092 64.7584
a 3134 538 21.2638
a 3134 3050 28.4652
a 3134 2851 9.8021
a 3135 2923 541.8302
a 3136 3168 27.3204
a 3136 2974 3.798
a 3136 2488 4.3992
a 3137 3141 17.5183
a 3137 99 5.773
a 3137 2992 4.8348
a 3138 11964 10.7733
a 3138 612 8.0906
a 3139 2853 2.8966
a 3139 3100 2.6921
a 3139 2990 11.3782
a 3139 2942 3.461
a 3140 3026 9.5465
a 3140 2940 3.9132
a 3140 3066 9.6019
a 3141 2889 26.4681
a 3141 2946 205.1642
a 3141 2911 11.9498
a 3141 3137 17.5183
a 3142 3001 12.5172
a 3143 2859 4.0846
a 3143 3073 15.4811
a 3143 2883 12.0492
a 3144 3101 55.0437
a 3144 2909 4.2523
a 3144 2846 307.4629
a 3145 1068 6.7493
a 3145 2932 4.338
a 3145 1120 12.096
a 3146 7505 5.3482
a 3146 3151 5.8255
a 3146 3029 15.2546
a 3146 3166 8.1749
a 3147 2900 8.8944
a 3147 2407 1.9714
a 3147 8954 26.137
a 3148 3731 28.4729
a 3148 10956 6.0386
a 3148 4000 4.2113
a 3148 3111 9.5537
a 3149 3131 4.873
a 3149 2896 3.4747
a 3150 13486 1.2902
a 3150 2958 6.984
a 3150 2979 111.7058
a 3151 3146 5.8255
a 3151 2992 4.2833
a 3151 539 13.6562
a 3151 2978 6.043
a 3152 4748 3.6958
a 3152 2852 27.4097
a 3152 2887 12.9693
a 3153 8039 4.8708
a 3153 3041 4.5864
a 3153 10071 13.1062
a 3154 10029 24.4886
a 3155 3049 13.0478
a 3155 3023 4.9334
a 3156 3088 29.4248
a 3156 11044 40.8843
a 3156 9447 3.4927
a 3157 2134 3.7526
a 3157 2135 3.7951
a 3157 3006 19.2211
a 3158 920 8.9309
a 3158 1727 16.6854
a 3158 3025 8.3966
a 3159 3027 25.2994
a 3159 6979 9.7682
a 3159 3047 15.9883
a 3160 3043 6.4296
a 3160 2146 6.485
a 3160 3165 1.5156
a 3161 2955 9.2304
a 3161 2967 4.1076
a 3161 2894 3.9571
a 3162 2865 14.917
a 3162 2910 3.7555
a 3162 3086 3.7685
a 3163 3059 11.3695
a 3163 2165 58.9814
a 3163 2171 2.6374
a 3163 8951 11.3436
a 3164 12497 5.7353
a 3164 12498 0.895
a 3164 7914 10.9627
a 3164 7915 4.3711
a 3165 3051 21.7426
a 3165 3160 1.5156
a 3165 4005 120.2859
a 3166 3029 5.6837
a 3166 3146 8.1749
a 3166 7505 12.5575
a 3167 9889 1.2434
a 3167 3170 6.9523
a 3168 7028 3.7951
a 3168 3136 27.3204
a 3168 3097 3.6605
a 3168 3112 4.4366
a 3169 1312 9.8287
a 3169 7522 9.7445
a 3169 8078 3.0859
a 3170 2949 4.5756
a 3170 3171 5.076
a 3171 3170 5.076
a 3171 7556 4.6238
a 3172 3098 168.0813
a 3173 13375 19.6396
a 3173 7696 201.58
a 3174 10609 0.761
a 3174 9208 16.434
a 3175 7530 14.7269
a 3176 3179 11.9153
a 3176 13461 3.361
a 3176 1790 6.9106
a 3176 3177 20.2666
a 3177 1208 62.4297
a 3177 9946 17.3736
a 3177 3176 20.2666
a 3177 1490 9.3953
a 3178 13461 6.0977
a 3178 2183 9.7618
a 3178 13466 151.1213
a 3178 1490 20.147
a 3179 3176 11.9153
a 3179 1117 7.0373
a 3179 1208 17.4744
a 3180 3186 5.7514
a 3180 9498 37.3242
a 3180 6921 8.0863
a 3181 3183 113.1564
a 3181 3191 21.2292
a 3181 1538 7.5773
a 3181 3192 5.3251
a 3182 3185 5.7586
a 3182 1537 6.3187
a 3182 11985 13.4827
a 3183 3188 13.163
a 3183 3185 5.2949
a 3183 3181 10.1081
a 3184 3188 13.1875
a 3184 3186 5.3179
a 3184 3190 5.7002
a 3185 3182 5.7586
a 3185 3183 5.2949
a 3185 3187 13.1602
a 3186 3180 5.7514
a 3186 3187 13.2415
a 3186 3184 5.3179
a 3187 3186 13.2415
a 3187 3185 13.1602
a 3187 3188 5.1523
a 3187 11985 5.8982
a 3188 3184 13.1875
a 3188 3183 13.163
a 3188 3189 5.9098
a 3188 3187 5.1523
a 3189 11810 2.7007
a 3189 3188 5.9098
a 3189 3192 7.8278
a 3190 3184 5.7002
a 3190 3191 8.2282
a 3190 7733 8.8697
a 3191 11810 2.219
a 3191 3181 287.3231
a 3191 3190 108.1071
a 3192 3181 5.3251
a 3192 3189 7.8278
a 3192 8835 4.6778
a 3193 3199 3.7145
a 3193 10081 4.2336
a 3193 1538 7.8466
a 3194 3195 123.0222
a 3194 3201 10.139
a 3194 3198 9.9929
a 3194 3197 5.4252
a 3195 1861 13.7463
a 3195 3200 11.2615
a 3195 3194 5.4281
a 3196 3197 2.3047
a 3196 3204 2.4149
a 3196 3542 11.1276
a 3197 3205 12.1262
a 3197 3196 2.3047
a 3197 3194 5.4252
a 3198 3200 5.2488
a 3198 3199 7.0927
a 3198 3194 9.9929
a 3199 10081 14.8687
a 3199 3193 16.0789
a 3199 3198 7.0927
a 3200 3195 40.1636
a 3200 3198 5.2488
a 3200 461 8.6393
a 3201 3205 4.3985
a 3201 10081 0.2592
a 3201 3194 10.139
a 3202 11317 2.9664
a 3202 3205 4.7909
a 3202 3204 12.2263
a 3202 9466 11.1276
a 3203 9466 9.108
a 3203 1538 9.175
a 3203 3205 14.3928
a 3204 3196 2.4149
a 3204 3202 12.2263
a 3204 7326 33.8425
a 3205 3202 52.0759
a 3205 3201 4.3985
a 3205 3197 12.1262
a 3205 3203 14.3928
a 3206 3540 3.587
a 3206 8448 175.4351
a 3207 1698 215.5515
a 3207 1681 3.7584
a 3207 1680 3.2904
a 3208 2903 7.8113
a 3208 1680 3.3293
a 3208 1679 5.4828
a 3209 1669 3.7339
a 3209 1673 5.6873
a 3209 1674 5.6009
a 3210 1518 6.7334
a 3210 3212 19.5026
a 3211 10822 96.204
a 3211 2453 23.6009
a 3211 7704 4.7549
a 3212 1205 7.1366
a 3212 1517 6.0847
a 3212 3210 1218.761
a 3213 12596 1.1304
a 3213 2675 20.0105
a 3213 2674 3.6706
a 3214 3846 3.8686
a 3214 2674 3.415
a 3214 12433 1.2398
a 3215 7418 1.8194
a 3215 12400 4.635
a 3216 12524 2.5387
a 3216 3219 6.5174
a 3216 3218 10.2852
a 3217 3221 4.6246
a 3217 3219 55.3145
a 3217 3222 3.4164
a 3218 3216 842.277
a 3218 8832 5.0033
a 3218 3219 9.1469
a 3219 11774 2.646
a 3219 3217 7.6241
a 3219 3216 6.5174
a 3219 3218 9.1469
a 3220 3221 6.2496
a 3221 3217 40.306
a 3221 3220 20.9882
a 3221 11772 11.2687
a 3222 8590 20.3733
a 3222 3625 20.9779
a 3222 3217 3.4164
a 3223 3215 1.3637
a 3223 3224 7.8962
a 3224 3224 162.0576
a 3224 3224 13.847
a 3224 3223 7.8962
a 3225 3298 10.2593
a 3225 3258 5.1084
a 3225 3269 4.5936
a 3226 3235 6.5426
a 3226 11616 7.8509
a 3226 3287 43.8288
a 3226 11684 168.9113
a 3227 13418 2.3861
a 3227 3275 439.6647
a 3227 3296 5.1336
a 3227 3257 522.5557
a 3228 7964 4.7684
a 3228 7962 7.272
a 3228 3238 4.6094
a 3229 3255 5.544
a 3229 3283 5.0429
a 3229 3270 27.9554
a 3229 7628 5.8867
a 3230 7353 10.4724
a 3230 7624 1.0872
a 3231 3305 256.595
a 3231 3247 15.7054
a 3231 11685 6.2942
a 3232 3283 18.5422
a 3232 3300 31.4205
a 3232 3270 7.9596
a 3233 3240 5.5058
a 3234 3284 0.792
a 3234 3243 5.6419
a 3234 3570 587.8225
a 3235 3274 9.715
a 3235 3226 6.5426
a 3235 3236 4.3142
a 3236 11038 0.3046
a 3236 3264 46.8853
a 3236 3235 4.3142
a 3237 3570 1.8684
a 3237 10980 4.5425
a 3237 7767 3.9492
a 3238 3246 5.2222
a 3238 3228 4.6094
a 3238 13566 7.6598
a 3238 3920 26.2728
a 3239 3244 47.3411
a 3239 3263 17.6033
a 3239 3301 4.4309
a 3240 7767 3.3257
a 3240 3291 31.7833
a 3240 3233 5.5058
a 3241 3306 3.3199
a 3242 3279 5.0616
a 3243 3234 5.6419
a 3243 3296 28.0903
a 3243 3286 15.2899
a 3244 12654 2.1456
a 3244 3239 4.4237
a 3244 3285 21.9334
a 3245 8685 6.1682
a 3245 10212 1.2413
a 3246 3256 3.1514
a 3246 3238 5.2222
a 3246 3298 4.0046
a 3247 3268 6.2345
a 3247 3231 15.7054
a 3247 3273 192.17
a 3248 2211 8.1454
a 3248 2216 6.1862
a 3248 3273 5.8104
a 3249 3293 5.3482
a 3249 3291 5.4101
a 3249 3275 17.6998
a 3249 11884 18.3694
a 3250 3303 4.1177
a 3250 3274 8.3081
a 3250 3294 6.1027
a 3251 8936 2.07
a 3252 12654 2.1953
a 3252 10985 10.3334
a 3252 3280 53.4321
a 3253 3295 23.2713
a 3253 9375 3.8362
a 3253 9375 33.5236
a 3254 8570 2.471
a 3254 4058 7.8221
a 3254 3260 4.482
a 3255 3268 6.3871
a 3255 3229 5.544
a 3255 11686 8.9518
a 3256 3246 35.1278
a 3256 3295 123.4922
a 3256 3269 8.4542
a 3257 3267 7.0106
a 3257 3227 10.5192
a 3257 10985 10.6934
a 3258 3271 7.735
a 3258 3261 13.4273
a 3258 3225 5.1084
a 3259 11905 0.9814
a 3259 3289 4.9471
a 3259 3278 584.5994
a 3260 3293 537.3854
a 3260 3263 4.8427
a 3260 3254 4.482
a 3260 3301 21.7123
a 3261 3271 12.623
a 3261 3920 7.0654
a 3261 3258 13.4273
a 3262 10148 8.0503
a 3263 3276 154.3901
a 3263 3239 17.6033
a 3263 3260 4.8427
a 3264 11905 5.4043
a 3264 3294 5.5454
a 3264 3236 10.1981
a 3265 4480 2.5236
a 3265 8408 0.8287
a 3265 4429 204.0713
a 3266 7625 1.0822
a 3266 3230 4.9766
a 3266 11897 0.6782
a 3267 3275 5.4223
a 3267 3257 7.0106
a 3267 3280 9.6228
a 3268 3247 6.2345
a 3268 3255 6.3871
a 3268 11685 7.3757
a 3269 3256 8.4542
a 3269 3225 4.5936
a 3269 3295 4.7052
a 3270 12653 1.4659
a 3270 3229 27.9554
a 3270 3232 7.9596
a 3271 3258 7.735
a 3271 3261 12.623
a 3271 3298 4.3855
a 3272 12189 0.6826
a 3272 10151 309.1195
a 3273 3279 173.0653
a 3273 3248 16.0794
a 3273 3247 18.9533
a 3274 3250 8.3081
a 3274 12391 439.9969
a 3274 3235 9.715
a 3274 11616 6.516
a 3275 3286 5.5591
a 3275 3267 5.4223
a 3275 3227 17.4845
a 3275 3249 17.6998
a 3276 3263 10.4378
a 3276 3285 4.4417
a 3276 3293 4.3394
a 3277 11990 11.9533
a 3277 3304 15.935
a 3277 2207 146.5614
a 3278 3259 333.0319
a 3278 3289 28.3205
a 3278 13565 4.608
a 3279 3273 5.562
a 3279 3242 5.0616
a 3279 3305 7.8199
a 3280 3267 9.6228
a 3280 3285 4.7714
a 3280 3252 17.5284
a 3281 3297 9.126
a 3282 8978 1.4364
a 3282 3292 18.3312
a 3282 3292 5.4108
a 3283 3229 5.0429
a 3283 3232 18.5422
a 3283 11684 4.4525
a 3284 3234 0.792
a 3284 3292 35.3036
a 3284 3416 8.5226
a 3285 3244 21.9334
a 3285 3280 4.7714
a 3285 3276 152.2584
a 3286 3275 5.5591
a 3286 10980 1.8198
a 3286 3243 15.2899
a 3287 10034 1573.7003
a 3287 2207 9.1015
a 3287 3226 15.377
a 3288 3302 5.4835
a 3288 2530 6.3612
a 3288 689 4.5886
a 3289 3278 28.3205
a 3289 11038 4.6238
a 3289 3259 4.9471
a 3290 10912 1.8706
a 3290 12223 0.707
a 3291 3249 5.4101
a 3291 3240 4.5439
a 3291 10980 11.8181
a 3292 3282 180.79
a 3292 3282 5.4108
a 3292 3284 3.0586
a 3293 3260 12.7512
a 3293 3249 5.3482
a 3293 3276 22.419
a 3294 3306 15.0786
a 3294 3250 6.1027
a 3294 3264 5.5454
a 3295 9374 74.8802
a 3295 3253 6.7133
a 3295 3256 11.7036
a 3295 3269 4.7052
a 3296 10978 2.7763
a 3296 3243 9.7013
a 3296 3227 5.1336
a 3297 10148 5.5296
a 3297 3281 9.126
a 3297 9718 5.1919
a 3298 3225 10.2593
a 3298 3246 4.0046
a 3298 3271 4.3855
a 3299 8977 5.232
a 3299 3701 3.0002
a 3299 7625 5.4173
a 3300 3232 8.3333
a 3301 8976 1.8094
a 3301 3239 4.4309
a 3301 7624 5.3136
a 3301 3260 21.7123
a 3302 3288 5.4835
a 3303 3250 4.1177
a 3304 7354 10.9066
a 3304 7957 21.3962
a 3304 3277 15.935
a 3305 3231 6.1438
a 3305 11686 523.853
a 3305 3279 7.8199
a 3306 3294 5.6988
a 3306 3241 15.0123
a 3306 11905 6.7594
a 3307 7205 19.6481
a 3307 7478 6.3173
a 3308 3903 10.1369
a 3308 11148 6.0523
a 3308 8376 23.6583
a 3309 3313 4.0255
a 3309 6020 13.3445
a 3309 6034 27.9081
a 3310 10179 1.6301
a 3310 5521 23.7521
a 3310 8723 50.8126
a 3310 5847 43.7508
a 3311 9002 18.4028
a 3311 5209 22.739
a 3311 9001 6.0696
a 3311 12983 3.5942
a 3312 4142 19.62
a 3312 5209 3.8664
a 3312 5215 35.6071
a 3312 4145 7.709
a 3313 6045 4.41
a 3313 3309 4.0255
a 3313 6031 10.26
a 3314 8277 8.1655
a 3314 3315 4.4374
a 3314 3807 4.9198
a 3315 3969 12.2263
a 3315 3314 175.6511
a 3316 402 3.1363
a 3316 3725 4.9392
a 3317 589 7.1352
a 3317 577 7.4218
a 3317 576 183.301
a 3318 1097 7.2454
a 3318 1571 3.5712
a 3319 3325 7.0459
a 3319 3330 25.8055
a 3320 1776 7.0502
a 3320 3322 10.8598
a 3321 3324 4.3956
a 3321 12852 1.6006
a 3322 3320 10.8598
a 3322 3323 1.0361
a 3322 1776 8.6378
a 3323 2879 5.9004
a 3323 3322 1.0361
a 3323 578 22.3956
a 3324 3321 4.3956
a 3324 12298 0.8964
a 3325 10104 3.6511
a 3325 3121 21.5352
a 3326 10101 5.2891
a 3327 10240 55.9811
a 3327 10240 4.1875
a 3328 7753 8.7444
a 3328 1569 273.2289
a 3328 10101 7.4203
a 3329 1093 0.4406
a 3329 11652 7.7134
a 3329 3005 26.3729
a 3330 3319 12.4027
a 3330 3319 25.8055
a 3331 11224 0.4608
a 3332 12827 6.7046
a 3332 3339 10.1398
a 3332 8143 106.9506
a 3333 3335 2.6482
a 3333 3334 2.8966
a 3333 1672 303.6407
a 3334 3333 2.8966
a 3334 3347 3.0607
a 3334 3347 16.4815
a 3335 3333 2.6482
a 3335 10291 0.8237
a 3335 3341 1.9289
a 3336 7578 4.2293
a 3336 12775 13.585
a 3337 3344 339.6273
a 3337 2026 4.8773
a 3337 2854 9.265
a 3338 622 8.8862
a 3338 620 30.6044
a 3338 624 16.3771
a 3339 11329 8.3426
a 3339 3332 10.1398
a 3339 11095 5.4396
a 3339 9984 3.4906
a 3340 1672 2.8267
a 3340 10291 2.7619
a 3340 3348 6.966
a 3341 3335 1.9289
a 3341 3348 64.8236
a 3341 1671 3.1097
a 3342 283 9.6307
a 3343 1703 8.4118
a 3343 8143 11.4898
a 3344 2065 6.0509
a 3344 2047 13.495
a 3344 3337 13.3351
a 3344 3349 5.9141
a 3345 7659 4.487
a 3345 3080 8.0388
a 3345 3000 30.3332
a 3346 12457 6.8357
a 3346 11224 13.3452
a 3347 3334 3.0607
a 3347 3334 16.4815
a 3347 3350 4.3056
a 3348 10291 4.2559
a 3348 3341 6.9422
a 3348 3340 6.966
a 3349 3344 5.9141
a 3349 3865 164.0975
a 3350 3347 4.3056
a 3351 12457 8.6234
a 3352 2271 4.6469
a 3352 11390 2.7158
a 3352 2270 4.8341
a 3353 2289 2.8692
a 3353 11390 5.6873
a 3353 11390 5.5296
a 3354 3355 107.6731
a 3354 10328 108.0411
a 3354 7655 2.1355
a 3355 3354 9.6703
a 3355 10329 11.5474
a 3355 11496 8.1785
a 3356 10318 7.3087
a 3356 10328 6.6456
a 3356 11496 1.872
a 3357 2389 102.0835
a 3357 3358 5.7413
a 3357 10331 3.4618
a 3358 3357 5.7413
a 3358 10332 3.2119
a 3358 3383 39.9398
a 3358 10334 12.5021
a 3359 5302 319.1211
a 3360 5302 403.5418
a 3360 12203 3.4339
a 3360 6861 8.064
a 3361 3404 21.4589
a 3361 3408 11.8562
a 3361 3362 4.7196
a 3361 3396 4.7131
a 3362 3415 19.6524
a 3362 3361 4.7196
a 3362 3410 26.8666
a 3363 3387 6.259
a 3363 10319 7.8739
a 3363 12037 2.3465
a 3363 11383 89.1791
a 3364 9649 3.4626
a 3364 10319 22.0298
a 3364 10906 5.2771
a 3365 3366 1.9548
a 3365 9649 3.4704
a 3365 10327 8.2037
a 3366 10333 0.9972
a 3366 3388 7.6644
a 3366 3365 1.9548
a 3367 3385 2.5877
a 3367 3368 2.2579
a 3367 13199 0.162
a 3368 3367 2.2579
a 3368 9065 12.0226
a 3368 11778 8.5831
a 3369 13199 6.408
a 3370 3374 3.3689
a 3370 10105 0.6098
a 3370 3371 15.8069
a 3371 3373 2.9095
a 3371 2388 7.2965
a 3371 3372 5.7816
a 3371 3370 15.8069
a 3372 2350 3.6094
a 3372 3371 5.7816
a 3372 2352 82.2982
a 3373 3378 4.0954
a 3373 3371 69.4731
a 3373 3374 15.7896
a 3374 3377 3.5158
a 3374 3370 3.3689
a 3374 3375 8.3686
a 3374 3373 15.7896
a 3375 3374 8.3686
a 3375 3376 3.7944
a 3375 3385 3.8362
a 3376 3377 8.6782
a 3376 3375 3.7944
a 3376 2357 11.8699
a 3377 2357 13.7928
a 3377 3374 3.5158
a 3377 3376 8.6782
a 3377 3378 15.7687
a 3378 3379 3.7217
a 3378 3373 4.0954
a 3378 2335 5.7442
a 3378 3377 15.7687
a 3379 3382 20.1373
a 3379 3378 3.7217
a 3379 3380 5.7262
a 3379 2357 15.7594
a 3380 2335 12.8087
a 3380 3381 3.6821
a 3380 3379 20.3536
a 3381 2334 3.7526
a 3381 3382 5.7082
a 3381 3380 3.6821
a 3382 2389 3.7181
a 3382 3379 3.6677
a 3382 3383 15.7486
a 3382 3381 73.8514
a 3383 2357 3.4726
a 3383 12510 0.4536
a 3383 3382 64.5577
a 3383 3358 3.7944
a 3384 3385 7.0985
a 3384 10901 4.0514
a 3384 2384 10.7496
a 3385 10900 4.3898
a 3385 3367 2.5877
a 3385 3375 3.8362
a 3385 3384 70.3169
a 3386 3387 758.48
a 3386 3400 1.0577
a 3386 3393 4.7736
a 3387 3386 27.1109
a 3387 3392 17.246
a 3387 3363 6.259
a 3388 3391 4.7275
a 3388 9061 26.5471
a 3388 3366 7.6644
a 3389 6858 1.9994
a 3389 12659 65.9887
a 3389 8987 3.5237
a 3390 3391 27.6545
a 3390 3393 4.7131
a 3390 8986 3.5784
a 3391 3388 4.7275
a 3391 3392 4.6966
a 3391 3390 27.6545
a 3392 3391 4.6966
a 3392 3387 4.6915
a 3392 3393 27.3838
a 3393 3392 27.3838
a 3393 3386 4.7736
a 3393 3390 4.7131
a 3393 3394 3.3689
a 3394 3403 2.0426
a 3394 3393 3.3689
a 3394 3398 11.9873
a 3395 3406 2.9527
a 3396 3397 21.4934
a 3396 3406 27.3787
a 3396 3361 4.7131
a 3396 3400 3.7253
a 3397 8981 1.6517
a 3397 3404 4.7621
a 3397 3396 21.4934
a 3398 3394 11.9873
a 3399 10323 7.1446
a 3399 10321 1.8958
a 3399 3400 3.3466
a 3400 3386 1.0577
a 3400 3399 3.3466
a 3400 3396 3.7253
a 3401 10323 4.8809
a 3402 10324 110.3495
a 3403 10324 7.2194
a 3403 10321 1.9584
a 3403 3394 2.0426
a 3404 3361 21.4589
a 3404 3415 4.2098
a 3404 3397 4.7621
a 3405 3412 4.523
a 3405 3406 4.6483
a 3405 3407 8.2512
a 3406 3395 2.9527
a 3406 3405 40.5101
a 3406 3396 27.3787
a 3407 8980 11.0248
a 3407 12040 46.2954
a 3407 3405 8.2512
a 3408 3412 11.1118
a 3408 3414 4.2228
a 3408 3361 155.0577
a 3409 3411 1.5415
a 3410 3411 14.1034
a 3410 3415 23.0911
a 3410 3362 14.3841
a 3410 3571 3.1853
a 3411 3409 1.5415
a 3411 3414 3.9305
a 3411 12040 10.9915
a 3411 3410 14.1034
a 3412 3405 17.8916
a 3412 3408 11.1118
a 3412 3413 4.2516
a 3413 3412 4.2516
a 3413 3414 11.0498
a 3413 12040 44.0089
a 3414 3411 3.9305
a 3414 3408 4.2228
a 3414 3413 11.0498
a 3415 3404 4.2098
a 3415 3362 19.6524
a 3415 3410 23.0911
a 3416 3284 8.5226
a 3416 3573 3.1313
a 3416 3572 12.618
a 3417 3577 2.3486
a 3417 3580 35.6993
a 3417 3578 6.9624
a 3418 3421 4.2912
a 3418 3419 3.1687
a 3418 3580 3.8462
a 3419 3418 3.1687
a 3419 3571 1.5185
a 3420 3425 3.9622
a 3420 3426 5.6592
a 3420 3424 9.0936
a 3421 3418 4.2912
a 3421 3423 69.1536
a 3421 3582 4.3589
a 3422 3423 6.4267
a 3422 3419 21.9348
a 3423 3422 6.4267
a 3423 3425 136.1962
a 3423 3421 18.6077
a 3424 3422 3.6554
a 3424 3425 156.5942
a 3425 3583 3.7498
a 3425 3424 5.8529
a 3425 3420 3.9622
a 3425 3423 35.8707
a 3426 3420 5.6592
a 3426 7638 11.0938
a 3426 12202 4.8398
a 3427 7905 1.0217
a 3427 3462 5.2366
a 3427 3438 211.4476
a 3428 3478 3.9996
a 3428 4509 9.396
a 3428 3482 18.3982
a 3429 4551 1.1758
a 3429 3440 5.747
a 3429 10719 16.4232
a 3430 3433 6.4922
a 3430 4367 1.2197
a 3430 3487 4.3985
a 3431 3484 4.2991
a 3431 3443 16.2058
a 3431 8599 4.5108
a 3432 3438 369.8998
a 3432 3459 6.2568
a 3432 8592 6.4418
a 3433 3430 171.4095
a 3433 3447 49.7615
a 3433 3476 4.4071
a 3434 3480 4.2631
a 3434 3489 4.8082
a 3434 3455 18.7682
a 3435 3484 17.3923
a 3435 3443 5.845
a 3435 3472 5.1466
a 3436 3486 163.4651
a 3436 7888 0.8474
a 3436 3450 4.3697
a 3437 3456 4.0853
a 3437 3463 4.2422
a 3437 13081 1.2607
a 3437 12759 0.797
a 3438 3427 4.5943
a 3438 8594 4.5907
a 3438 3432 16.0754
a 3439 3472 199.4688
a 3439 3465 4.4813
a 3439 3445 276.755
a 3440 3444 5.1926
a 3440 3474 12.8052
a 3440 3429 5.747
a 3441 3486 4.0781
a 3441 3463 4.266
a 3441 3460 19.1304
a 3442 9935 0.6869
a 3442 3468 6.2122
a 3442 3485 6.2093
a 3443 3445 44.7219
a 3443 3431 16.2058
a 3443 3466 4.7203
a 3443 3435 282.7748
a 3444 3440 5.1926
a 3444 3489 16.2086
a 3444 3455 8.4643
a 3445 3443 4.6987
a 3445 4505 6.3137
a 3445 3439 12.0586
a 3446 9937 63.7412
a 3446 3454 4.6368
a 3446 9938 168.0005
a 3447 3471 3.8729
a 3447 3479 5.3633
a 3447 3433 35.8573
a 3448 3467 6.2424
a 3448 3455 18.6559
a 3448 3465 7.637
a 3449 4378 5.9083
a 3449 3473 4.5965
a 3449 3462 4.9608
a 3450 3481 4.7794
a 3450 7889 0.6725
a 3450 3436 4.3697
a 3451 3464 4.6994
a 3451 3456 17.9849
a 3451 3469 8.2894
a 3451 3475 4.2422
a 3452 3468 11.9463
a 3452 7894 7.7949
a 3452 3457 4.2545
a 3453 3467 1.5581
a 3454 3460 43.0894
a 3454 3446 23.0518
a 3454 3478 4.392
a 3455 3472 36.3698
a 3455 3448 18.6559
a 3455 3444 8.4643
a 3455 3434 18.7682
a 3456 3437 4.0853
a 3456 7893 0.7661
a 3456 3451 17.9849
a 3456 3470 4.4338
a 3457 3460 4.302
a 3457 3452 4.2545
a 3457 3463 19.6322
a 3458 3482 268.0899
a 3458 3478 20.2572
a 3458 3468 4.3452
a 3459 12782 0.4738
a 3459 3466 64.084
a 3459 3432 165.7635
a 3460 3454 44.8695
a 3460 3457 4.302
a 3460 3441 19.1304
a 3461 3481 4.6656
a 3461 3476 98.3976
a 3461 7890 0.7754
a 3461 3464 12.744
a 3462 3449 4.9608
a 3462 3427 55.4597
a 3462 4432 7.7875
a 3462 3466 18.702
a 3463 3437 4.2422
a 3463 3441 4.266
a 3463 3469 17.9683
a 3463 3457 19.6322
a 3464 3451 4.6994
a 3464 3471 4.5713
a 3464 3461 12.744
a 3465 3439 4.4813
a 3465 3448 7.637
a 3465 3467 15.2906
a 3466 3462 18.702
a 3466 3443 4.7203
a 3466 3459 6.4534
a 3467 3453 1.5581
a 3467 3448 6.2424
a 3467 3465 15.2906
a 3468 3452 4.0478
a 3468 12960 0.6638
a 3468 3442 6.2122
a 3468 3458 4.3452
a 3469 3481 45.3895
a 3469 3463 17.9683
a 3469 3451 8.2894
a 3470 8599 0.7942
a 3470 3475 17.9928
a 3470 3456 4.4338
a 3471 3464 4.5713
a 3471 3447 3.8729
a 3471 3476 12.8275
a 3472 3439 4.7477
a 3472 3455 4.4813
a 3472 3435 5.1466
a 3472 3480 18.1483
a 3473 4539 153.7206
a 3473 4548 6.9739
a 3473 3449 4.5965
a 3474 3489 49.7076
a 3474 3440 12.8052
a 3474 8598 8.9698
a 3475 8600 0.7625
a 3475 3479 11.3854
a 3475 3451 4.2422
a 3476 3461 4.4647
a 3476 3433 4.4071
a 3476 3471 12.8275
a 3477 3470 52.2404
a 3477 8592 0.725
a 3478 3428 3.9996
a 3478 3454 4.392
a 3478 3458 20.2572
a 3479 3447 5.3633
a 3479 153 5.8594
a 3480 3484 4.5202
a 3480 3434 55.3926
a 3480 3472 18.1483
a 3481 3461 4.6656
a 3481 3450 4.7794
a 3481 3469 4.4021
a 3481 7891 2.3364
a 3482 3458 4.0702
a 3482 3428 659.845
a 3482 4509 386.1544
a 3483 4273 14.634
a 3483 10716 5.0479
a 3483 3488 4.3337
a 3484 3431 4.2991
a 3484 3480 4.5202
a 3484 3435 17.3923
a 3485 3477 14.238
a 3485 8594 0.7164
a 3486 3441 4.0781
a 3486 3436 61.6571
a 3486 7892 23.6175
a 3487 7873 7.3476
a 3487 10796 13.9514
a 3488 4548 3.5993
a 3488 4277 6.2698
a 3488 3483 4.3337
a 3489 8600 42.5582
a 3489 3434 4.8082
a 3489 3474 4.6512
a 3489 3444 16.2086
a 3490 13346 2.875
a 3490 2295 5.1574
a 3490 10122 15.5038
a 3491 4815 5.1437
a 3492 13350 13.392
a 3492 3495 1.4414
a 3493 3500 2.6561
a 3493 3495 51.0618
a 3494 7237 47.8902
a 3494 3506 17.1151
a 3494 3499 29.7846
a 3495 2294 9.5141
a 3495 3492 101.8183
a 3495 3493 5.0378
a 3496 3512 5.4986
a 3497 13539 0.5364
a 3497 10121 9.1066
a 3497 3507 350.9496
a 3497 3499 2.6474
a 3498 3507 2.803
a 3498 3499 17.3822
a 3498 3506 3.8765
a 3499 3498 17.3822
a 3499 3497 10.8543
a 3499 3494 3.5654
a 3500 3501 7.3354
a 3500 3503 2.7144
a 3500 3493 2.6561
a 3501 10120 2.7756
a 3501 3502 2.7446
a 3502 3503 7.1287
a 3502 3505 66.0255
a 3502 3501 2.7446
a 3503 3502 7.1287
a 3503 3504 2.8541
a 3503 3500 2.7144
a 3504 3505 6.8839
a 3504 3506 2.8066
a 3504 3503 2.8541
a 3505 3507 2.8534
a 3505 3504 6.8839
a 3505 3502 2.7965
a 3506 3498 3.8765
a 3506 3494 17.1151
a 3506 3504 2.8066
a 3507 3498 2.803
a 3507 3505 2.8534
a 3507 3497 17.6674
a 3508 3510 1.4537
a 3509 3512 4.1371
a 3509 10120 3.1824
a 3509 3517 13.7614
a 3510 3508 1.4537
a 3510 3515 12.2386
a 3511 3519 192.3073
a 3512 3496 5.4986
a 3512 3509 4.1371
a 3512 3519 3.5928
a 3513 3514 4.5778
a 3513 3519 12.7195
a 3513 3516 73.7104
a 3514 3515 3.5942
a 3514 3518 12.5467
a 3514 3513 157.1708
a 3515 3514 3.5942
a 3515 3511 3.5582
a 3516 3517 3.649
a 3516 3513 7.4203
a 3516 3519 12.9139
a 3517 3516 3.649
a 3517 3518 3.6749
a 3518 3510 3.7037
a 3518 3514 12.5467
a 3519 3513 65.1398
a 3519 3512 3.5928
a 3519 3511 25.0265
a 3519 3516 12.9139
a 3520 12445 0.9742
a 3520 13538 1.9742
a 3520 12152 606.2893
a 3521 6930 13.5007
a 3521 7237 8.3966
a 3521 7238 9.0677
a 3522 3524 5.004
a 3522 7726 12.0478
a 3523 3525 5.1941
a 3523 2824 6.0257
a 3523 154 4.127
a 3524 3154 3.1205
a 3524 12069 0.7848
a 3525 3523 23.9625
a 3525 11630 2.723
a 3525 8225 20.3033
a 3525 12069 16.5809
a 3526 2826 23.2956
a 3526 157 2.7886
a 3526 160 11.6654
a 3527 7697 2.6691
a 3527 3079 10.6344
a 3528 7697 17.5255
a 3528 9605 10.7359
a 3529 157 65.2322
a 3529 155 11.9088
a 3529 3530 5.2409
a 3530 3531 4.4302
a 3530 1533 22.0255
a 3530 3529 5.2409
a 3531 2484 18.4601
a 3531 3532 4.523
a 3531 3530 4.4302
a 3532 3533 12.2115
a 3532 3531 4.523
a 3532 2482 17.2814
a 3533 1529 18.594
a 3533 3532 4.8701
a 3533 1528 446.8592
a 3534 1226 0.859
a 3535 3566 6.8825
a 3535 927 18.7805
a 3535 3543 17.5478
a 3536 3566 5.4972
a 3536 11214 11.1737
a 3536 6376 8.2778
a 3537 11642 9.3708
a 3538 3545 4.4582
a 3539 7729 2.5416
a 3539 3563 5.4367
a 3540 12753 0.3161
a 3540 3548 6.3907
a 3540 3206 208.0291
a 3541 8774 13.4006
a 3541 6783 14.0724
a 3541 3565 6.2122
a 3542 3196 11.1276
a 3542 462 14.652
a 3542 1861 8.1187
a 3543 3549 6.4534
a 3543 3535 52.8394
a 3543 3560 3.0694
a 3543 3558 8.5054
a 3544 3550 536.9735
a 3545 3562 20.489
a 3545 3562 33.4411
a 3546 11241 4.6642
a 3546 5335 5.778
a 3546 13540 3.1032
a 3547 466 0.7711
a 3548 3552 7.5204
a 3548 3552 15.1265
a 3548 3540 6.3907
a 3549 3116 6.8926
a 3549 2951 11.9563
a 3549 3543 6.4534
a 3549 13401 10.8194
a 3550 953 42.449
a 3550 927 132.4407
a 3550 3553 73.6601
a 3550 3544 17.406
a 3551 925 6.2906
a 3551 3567 6.5729
a 3551 11214 10.8158
a 3552 3548 15.1265
a 3552 3548 7.5204
a 3552 3555 5.3186
a 3553 3567 4.95
a 3553 924 4.1609
a 3553 3550 10.8151
a 3553 958 14.1602
a 3554 8166 12.9434
a 3554 13400 0.918
a 3555 13400 18.4565
a 3555 3552 5.3186
a 3555 3561 6.1466
a 3555 10948 186.1367
a 3556 8146 1.5854
a 3556 6788 1.9289
a 3556 6789 11.0074
a 3557 424 4.5353
a 3557 432 15.4807
a 3557 8226 79.1755
a 3558 3566 7.3318
a 3558 3543 8.5054
a 3558 6376 9.8042
a 3559 3565 6.025
a 3559 8146 10.4702
a 3559 6789 202.3461
a 3560 3543 3.0694
a 3561 3555 6.1466
a 3562 3545 20.489
a 3562 9468 6.4051
a 3563 9468 1.8435
a 3563 9978 2.6014
a 3563 11284 0.6062
a 3563 3539 5.4367
a 3564 6376 42.6937
a 3564 2951 4.1623
a 3564 3129 15.4764
a 3565 3559 16.638
a 3565 6784 13.7203
a 3565 3541 6.2122
a 3566 3535 6.8825
a 3566 6376 2.9196
a 3566 3558 7.3318
a 3566 3536 5.4972
a 3567 3551 6.5729
a 3567 3553 4.95
a 3567 927 10.8151
a 3567 957 13.6663
a 3568 11208 8.3232
a 3568 11210 0.9749
a 3569 10810 1.4119
a 3569 10939 121.0586
a 3569 8506 20.7792
a 3570 3237 1.8684
a 3570 3234 39.201
a 3570 8979 10.517
a 3571 3419 1.5185
a 3571 3579 2.4538
a 3571 3410 210.6604
a 3572 3574 2.2248
a 3572 12799 1.5019
a 3572 3416 12.618
a 3573 3575 59.0185
a 3573 12800 14.2667
a 3573 3416 30.9476
a 3574 3575 7.1777
a 3574 3576 2.1168
a 3574 3572 7.7476
a 3575 3573 2.2262
a 3575 3577 2.2529
a 3575 3574 7.1777
a 3576 3577 7.0733
a 3576 3578 11.4358
a 3576 3574 2.1168
a 3577 3575 2.2529
a 3577 3417 2.3486
a 3577 3576 7.0733
a 3578 3417 6.9624
a 3578 3579 2.3681
a 3578 3576 2.5308
a 3579 3580 6.8616
a 3579 3571 2.4538
a 3579 3578 2.3681
a 3580 3417 2.219
a 3580 3579 6.8616
a 3580 3418 3.8462
a 3581 3584 6.017
a 3582 3584 3.3667
a 3582 3421 4.3589
a 3582 3583 62.0184
a 3583 3425 3.7498
a 3583 3589 4.6354
a 3583 3582 21.9204
a 3584 3582 80.1156
a 3584 3581 6.017
a 3584 3589 19.2593
a 3585 10993 0.2045
a 3585 3593 7.7522
a 3585 13237 8.591
a 3585 7629 6.6067
a 3586 3587 6.7356
a 3586 11271 9.1994
a 3586 13237 4.6548
a 3587 3590 6.1682
a 3587 3592 4.7693
a 3587 3586 6.7356
a 3588 11220 5.3827
a 3589 3583 4.6354
a 3589 3584 19.2593
a 3589 11220 23.3327
a 3590 3587 6.1682
a 3590 3591 4.8427
a 3590 11220 0.4068
a 3591 3590 4.8427
a 3591 3592 6.2561
a 3591 3596 11.3753
a 3592 3591 6.2561
a 3592 3595 77.291
a 3592 3587 4.7693
a 3593 3594 15.4505
a 3593 3595 3.4985
a 3593 3585 7.7522
a 3594 3593 157.5054
a 3594 12656 6.0127
a 3594 11762 13.0313
a 3595 3593 3.4985
a 3595 3592 3.6461
a 3595 12225 12.2897
a 3596 3591 11.3753
a 3596 11767 1.1837
a 3596 12657 1.5552
a 3597 8620 6.8774
a 3597 6783 6.2705
a 3598 5025 25.6425
a 3599 7584 3.1284
a 3599 3598 5.513
a 3600 5318 10.8518
a 3600 3601 5.6923
a 3600 5321 5.2848
a 3600 3607 8.2865
a 3601 5350 11.6107
a 3601 10645 4.6073
a 3601 3600 18.1946
a 3602 5334 4.7484
a 3602 12956 11.0714
a 3603 11835 1.8094
a 3603 3604 4.4323
a 3603 8774 30.5425
a 3604 3607 7.1554
a 3604 3603 4.4323
a 3604 3605 19.8986
a 3605 3606 9.3744
a 3605 8620 11.736
a 3605 3604 19.8986
a 3606 5337 2.5027
a 3606 3605 9.3744
a 3606 3607 14.7211
a 3607 3604 7.1554
a 3607 3606 14.7211
a 3607 3600 8.2865
a 3608 10631 1.265
a 3608 5318 0.8114
a 3608 5350 178.421
a 3609 5353 3.0874
a 3609 5358 0.653
a 3609 11756 19.0814
a 3610 4805 5.2488
a 3610 9967 2.5898
a 3610 3612 10.0642
a 3611 9966 1.5854
a 3611 11223 2.011
a 3611 4806 16.1993
a 3612 5353 4.4302
a 3612 12205 2.7828
a 3612 3610 10.0642
a 3612 4806 4.7246
a 3613 3783 212.037
a 3614 3887 5.526
a 3614 4035 10.0922
a 3614 3713 17.6386
a 3614 3713 460.1062
a 3615 3729 125.1768
a 3615 3706 4.8931
a 3615 12127 11.6607
a 3616 2606 1.3414
a 3616 3752 118.3742
a 3616 2736 13.7174
a 3617 3708 3.4466
a 3617 4077 6.5801
a 3617 3994 5.4893
a 3618 3649 5.4281
a 3618 9719 12.0298
a 3618 2733 11.1715
a 3619 8843 6.9516
a 3619 3902 5.0436
a 3619 3773 10.0051
a 3620 3983 4.153
a 3620 3822 14.7809
a 3620 9473 14.8838
a 3621 3780 4.2242
a 3621 3832 3.883
a 3621 3869 6.5707
a 3621 3775 15.1387
a 3622 2738 4.2242
a 3622 2193 10.7381
a 3622 2739 3.991
a 3622 3809 11.0722
a 3623 1809 3.996
a 3623 2597 4.2811
a 3623 3785 3.4272
a 3624 13225 3.8579
a 3624 4084 94.1804
a 3625 2721 21.4633
a 3625 3222 20.9779
a 3625 7949 18.6473
a 3626 3806 4.2876
a 3626 2604 31.3142
a 3626 1810 3.3646
a 3627 11552 1.6668
a 3627 277 3.9931
a 3627 3893 3.96
a 3628 2730 4.2466
a 3628 4014 14.7283
a 3628 2729 14.6326
a 3629 3682 9.0526
a 3629 4083 5.7542
a 3629 9856 17.7754
a 3630 12935 2.1564
a 3630 12934 4.1707
a 3630 3893 16.7602
a 3631 3803 3.1543
a 3631 12399 15.1834
a 3631 10394 2.4538
a 3632 7403 1.6819
a 3632 3823 15.565
a 3632 3713 2.8382
a 3633 7325 4.6152
a 3633 4049 4.4064
a 3633 3947 8.9093
a 3633 8846 13.2905
a 3634 3043 3.307
a 3634 3694 3.3055
a 3634 3840 8.3203
a 3635 8935 5.0882
a 3635 11983 6.7298
a 3635 3704 17.5975
a 3636 13571 0.5249
a 3636 9493 1.5113
a 3636 3762 6.6283
a 3637 4085 6.6362
a 3638 10340 13.266
a 3638 9111 15.5765
a 3638 12412 3.4891
a 3639 3814 6.2539
a 3639 3950 5.1646
a 3639 9612 10.265
a 3640 3835 3.4373
a 3640 6033 1.4479
a 3640 7867 5.1624
a 3641 3748 11.4746
a 3641 3871 3.9074
a 3641 3931 5.3863
a 3642 11367 2.8843
a 3642 4102 5.7017
a 3642 8314 3.7001
a 3643 3869 10.1714
a 3644 3685 4.5727
a 3644 8839 9.4774
a 3644 3974 4.3906
a 3645 8829 58.3989
a 3645 3835 5.9191
a 3645 11256 249.5416
a 3646 3793 4.3265
a 3646 12452 3.4294
a 3646 3943 5.4446
a 3647 11381 2.5258
a 3647 3879 12.3797
a 3647 2579 4.7844
a 3648 3768 9.2722
a 3649 3618 5.4281
a 3649 12732 14.9717
a 3649 4092 12.4654
a 3650 8838 4.7246
a 3650 3974 7.6579
a 3650 8839 6.349
a 3651 4002 8.8474
a 3651 3801 4.6793
a 3651 3819 4.6282
a 3652 2871 2.2788
a 3652 3975 3.5496
a 3652 3708 6.5844
a 3653 2792 13.7304
a 3653 4010 5.5742
a 3653 2707 3.6929
a 3654 277 43.3114
a 3654 276 17.3621
a 3654 13218 15.6823
a 3655 2708 307.1821
a 3655 2792 3.8952
a 3655 4010 9.4068
a 3656 3881 69.551
a 3656 2736 344.5545
a 3656 3821 4.2149
a 3657 3841 6.3763
a 3657 4013 3.6583
a 3658 3845 1.0152
a 3658 8544 3.4783
a 3658 10976 275.9933
a 3659 3687 6.5189
a 3659 7653 12.8455
a 3660 10926 3.5078
a 3660 12054 0.5126
a 3661 4019 3.317
a 3661 3802 6.9739
a 3661 3759 88.6035
a 3662 2590 6.3274
a 3662 1806 4.2386
a 3662 4020 3.7274
a 3663 3812 5.4202
a 3663 3721 77.7033
a 3663 3929 6.7082
a 3664 2696 5.5382
a 3664 12786 15.0091
a 3664 2695 6.637
a 3665 3669 3.1673
a 3665 3810 13.0075
a 3665 11489 17.5342
a 3666 3954 3.8981
a 3666 2791 3.1248
a 3666 2790 70.5314
a 3667 3836 2.6179
a 3667 3718 3.5482
a 3667 3782 7.902
a 3668 3892 12.4941
a 3668 3964 4.5461
a 3668 3709 4.9342
a 3669 3953 3.8448
a 3669 3900 23.4277
a 3669 3665 112.89
a 3670 3849 3.0031
a 3670 3875 9.9065
a 3671 3676 116.2287
a 3671 3683 31.8506
a 3672 3671 4.2012
a 3672 8840 6.3511
a 3673 4050 3.955
a 3674 3850 3.8376
a 3674 8612 6.2388
a 3674 9028 0.7754
a 3675 3895 4.7772
a 3675 4049 365.4697
a 3675 8845 9.8827
a 3676 8839 4.9961
a 3676 3671 37.9614
a 3676 8838 67.0926
a 3676 8840 4.6519
a 3677 12294 0.4666
a 3677 11260 4.1292
a 3677 2685 4.3632
a 3678 2198 2.8715
a 3678 3987 6.2626
a 3678 10044 197.0988
a 3679 3871 9.1368
a 3679 3962 7.4916
a 3679 3997 3.6072
a 3680 8671 9.6473
a 3680 7961 93.8299
a 3681 3757 3.6562
a 3681 4043 4.2559
a 3681 3901 4.9493
a 3681 3716 9.3103
a 3682 3629 9.0526
a 3683 8838 4.5806
a 3683 3773 21.0154
a 3684 2190 12.5935
a 3684 3886 7.2641
a 3684 9824 3.9866
a 3684 8382 4.2149
a 3685 3644 4.5727
a 3685 8839 10.9361
a 3685 3990 7.5694
a 3686 3981 5.2027
a 3686 8355 2.3386
a 3686 3819 9.383
a 3687 12606 0.6977
a 3687 3659 6.5189
a 3687 3827 13.0838
a 3688 3993 78.0455
a 3688 3975 3.559
a 3688 3084 3.5597
a 3689 1810 4.2962
a 3689 12758 1.6891
a 3689 3806 5.0263
a 3690 4082 2.2392
a 3690 12386 1.6812
a 3690 4026 4.9327
a 3690 3711 38.0442
a 3691 4031 3.2688
a 3692 3699 4.1227
a 3693 3801 14.5339
a 3694 3634 3.3055
a 3694 3106 3.2904
a 3694 3011 87.5545
a 3695 4132 10.7114
a 3695 3728 6.2078
a 3696 3916 4.811
a 3696 12611 13.4431
a 3696 12689 4.9543
a 3697 4025 3.3732
a 3697 3703 17.4089
a 3697 3721 4.59
a 3698 3914 12.7462
a 3699 9682 3.8102
a 3699 3884 4.8348
a 3699 3692 4.1227
a 3700 11661 3.6612
a 3700 7947 11.9772
a 3700 2578 188.9395
a 3701 8528 5.6988
a 3701 4016 4.2912
a 3701 3299 3.0002
a 3702 3921 181.1658
a 3702 12548 7.835
a 3702 3727 5.837
a 3703 8279 0.9058
a 3703 3697 17.4089
a 3703 3747 4.8377
a 3704 3635 85.3699
a 3705 3867 4.2991
a 3705 3997 16.3649
a 3705 3982 11.3422
a 3706 3890 224.7565
a 3706 4055 17.7807
a 3706 3615 11.1811
a 3707 3923 2.6813
a 3708 3787 3.4603
a 3708 3617 3.4466
a 3708 3652 6.5844
a 3708 7703 140.4011
a 3709 3723 141.4451
a 3709 3668 4.9342
a 3710 4013 6.39
a 3710 10043 3.4387
a 3710 2189 3.9125
a 3711 3941 3.0866
a 3711 3690 10.3716
a 3711 4026 5.1732
a 3712 3741 56.6981
a 3712 7093 10.9836
a 3712 8346 9.1318
a 3713 3614 16.9027
a 3713 3614 17.6386
a 3713 3632 2.8382
a 3714 3659 11.4566
a 3714 4071 19.4796
a 3715 4069 2.9095
a 3715 12998 7.1237
a 3715 5323 4.7153
a 3716 3904 4.1854
a 3716 8330 4.4546
a 3716 3681 9.3103
a 3717 3769 2.6438
a 3717 9080 9.2275
a 3717 11994 11.6554
a 3718 3852 9.5342
a 3718 3980 198.0762
a 3718 3667 114.3671
a 3719 3938 73.6368
a 3719 2113 175.6481
a 3719 3896 5.3129
a 3720 2578 5.4605
a 3721 3663 20.8858
a 3721 3963 5.0825
a 3721 3697 4.59
a 3722 7609 3.3422
a 3722 4072 2.6395
a 3722 4072 14.1005
a 3723 3709 11.3897
a 3723 3875 14.1221
a 3724 13556 12.3595
a 3724 12389 2.425
a 3725 3832 17.3772
a 3725 3818 12.5366
a 3726 4251 1.0138
a 3726 12520 1.5746
a 3726 278 6.2856
a 3727 2684 4.7038
a 3727 13203 0.63
a 3727 12929 0.6293
a 3727 3702 5.837
a 3728 4136 7.6025
a 3728 3695 6.2078
a 3729 3615 176.7308
a 3730 2740 4.1566
a 3730 3874 5.7931
a 3730 2737 179.1352
a 3731 3148 3.618
a 3731 4062 1.8425
a 3731 3909 20.5531
a 3732 10296 6.9538
a 3732 3051 92.6365
a 3732 3837 24.0581
a 3733 8279 0.6674
a 3734 3990 5.346
a 3734 4032 4.6404
a 3734 3968 13.7858
a 3734 8840 13.8218
a 3735 2756 249.1576
a 3735 9382 30.3334
a 3735 11968 8.1907
a 3735 4011 8.7955
a 3736 7911 4.3625
a 3736 2748 0.9626
a 3736 2759 432.7014
a 3737 3116 8.2836
a 3737 3111 13.963
a 3737 2951 10.3781
a 3738 1805 3.0074
a 3738 2591 1.0519
a 3738 3928 6.3022
a 3739 3963 6.8054
a 3739 4072 4.2084
a 3739 12058 9.5976
a 3740 12243 0.715
a 3740 9853 11.8181
a 3741 3961 5.891
a 3741 3712 22.1753
a 3741 3842 8.3477
a 3742 3890 3.0845
a 3743 8258 4.0219
a 3743 3805 4.9162
a 3743 3808 3.204
a 3743 3820 2.7079
a 3744 3970 2.497
a 3744 2749 15.4591
a 3744 3976 25.4614
a 3745 12229 0.5119
a 3745 3802 79.2593
a 3745 9045 16.5305
a 3746 4007 9.2988
a 3746 4047 2.4566
a 3746 12591 2.9311
a 3747 3703 4.8377
a 3747 3916 7.241
a 3747 3791 6.2575
a 3748 3641 11.4746
a 3748 3948 6.012
a 3748 3931 11.5906
a 3749 3872 15.9602
a 3750 4025 5.3381
a 3750 12399 6.8047
a 3750 12114 10.5379
a 3751 10904 3.3955
a 3751 13171 7.128
a 3751 4018 5.1754
a 3752 3616 2.6359
a 3752 2190 4.1904
a 3752 8382 13.0284
a 3753 4040 7.614
a 3753 3845 11.5963
a 3753 10977 4.986
a 3754 2784 11.1154
a 3755 3988 1.4868
a 3756 3801 2.9952
a 3757 3681 3.6562
a 3757 3901 10.1534
a 3757 8365 43.2356
a 3757 4048 4.1724
a 3758 3897 4.5166
a 3758 3978 6.3022
a 3758 3978 13.5475
a 3759 11850 4.8744
a 3759 3784 1.7914
a 3759 3661 6.223
a 3760 13221 31.2561
a 3760 276 2.6251
a 3761 3872 3.6641
a 3761 4058 19.746
a 3761 3828 18.7812
a 3762 8917 1.1755
a 3762 3636 60.1144
a 3762 8636 3.4265
a 3763 3945 103.5492
a 3763 3825 2.4401
a 3763 3994 3.5532
a 3763 4053 3.5561
a 3764 3868 591.5376
a 3765 3779 3.3214
a 3765 3899 16.6104
a 3765 4003 3.5856
a 3766 9116 5.1228
a 3766 4043 3.3307
a 3767 3820 2.8505
a 3768 9384 9.5573
a 3768 3781 7.0776
a 3768 3648 9.2722
a 3769 3951 4.127
a 3769 3717 2.6438
a 3769 9079 15.5066
a 3769 9473 5.5987
a 3770 11715 10.6574
a 3770 2939 2.3515
a 3770 3057 1.2629
a 3771 3890 3.3883
a 3771 3956 1.9274
a 3771 13262 6.5542
a 3772 3888 105.6306
a 3772 3774 13.0991
a 3772 2784 4.0522
a 3773 10082 2.8872
a 3773 3619 10.0051
a 3773 8842 15.7464
a 3774 12595 9.0331
a 3774 3788 5.2229
a 3774 3772 3.9902
a 3775 402 13.4554
a 3775 2731 12.8693
a 3775 3621 15.1387
a 3776 8283 0.5522
a 3776 4035 4.3783
a 3776 8281 3.5647
a 3777 3918 3.4013
a 3777 7471 2.381
a 3777 3995 11.489
a 3778 8787 1.0757
a 3778 3844 6.9761
a 3779 3950 3.5316
a 3779 3765 3.3214
a 3779 3836 16.6795
a 3780 3621 4.2242
a 3780 3834 4.0457
a 3780 3905 108.0943
a 3780 8368 11.5085
a 3781 7094 3.6014
a 3781 4030 22.1918
a 3781 3768 7.0776
a 3782 3667 35.1327
a 3782 3980 3.7807
a 3782 4045 13.6947
a 3783 9187 3.4877
a 3783 9186 2.3018
a 3783 3613 9.7834
a 3784 3759 1.7914
a 3785 3811 4.2113
a 3785 3623 3.4272
a 3785 3922 3.4898
a 3786 3888 3.7829
a 3787 3993 3.461
a 3787 3708 14.9262
a 3787 3975 6.5902
a 3787 3863 3.7274
a 3788 2718 3.7109
a 3788 2788 5.6354
a 3788 2781 22.4028
a 3788 3774 5.2229
a 3789 3111 4.3402
a 3790 8381 6.3497
a 3790 3979 4.0226
a 3791 3747 6.2575
a 3791 8566 9.9583
a 3792 3961 18.3362
a 3792 3954 3.9751
a 3792 10035 9.9576
a 3793 3646 4.3265
a 3793 3910 4.1198
a 3793 4039 5.2092
a 3793 3971 4.0572
a 3794 10310 2.6791
a 3794 13571 3.0298
a 3794 8917 8.9705
a 3795 11736 6.5246
a 3795 11189 6.2021
a 3795 3822 9.2772
a 3795 8732 12.3854
a 3796 7355 2.6114
a 3796 4066 4.3697
a 3796 3848 60.3933
a 3797 5375 9.0451
a 3797 8630 2.5733
a 3797 5316 10.7626
a 3798 13190 9.0821
a 3798 11295 24.0408
a 3798 2706 227.6066
a 3798 3824 283.6533
a 3799 8842 109.3373
a 3799 4070 4.6354
a 3799 13325 2.6467
a 3799 8843 6.3958
a 3800 3981 4.2466
a 3800 3967 10.5667
a 3800 3972 4.212
a 3801 3693 5.6383
a 3801 3826 4.0298
a 3801 3756 24.5723
a 3801 3651 4.6793
a 3802 13213 0.6379
a 3802 3661 6.9739
a 3802 3745 58.4601
a 3802 4056 5.7694
a 3803 3631 12.9444
a 3803 3804 7.7213
a 3803 3834 14.503
a 3804 4011 2.1665
a 3804 2756 7.8617
a 3804 3803 7.7213
a 3805 10396 6.6924
a 3805 3932 8.1864
a 3805 3743 4.9162
a 3806 3626 4.2876
a 3806 3689 5.0263
a 3806 2603 4.7102
a 3807 3992 4.8161
a 3807 3314 4.9198
a 3807 4239 3.4949
a 3808 8364 5.6635
a 3808 8256 2.718
a 3808 3743 3.204
a 3809 9481 3.9701
a 3809 2736 4.3186
a 3809 3622 11.0722
a 3809 3821 10.2672
a 3810 3665 13.0075
a 3811 2199 2.6374
a 3811 3785 302.3608
a 3811 2198 2.0369
a 3812 12397 1.7431
a 3812 11649 2.1427
a 3812 3663 5.4202
a 3813 13212 0.7495
a 3813 4105 3.353
a 3813 7701 4.8578
a 3814 3639 6.2539
a 3814 3856 3.667
a 3814 9612 4.2444
a 3815 9823 6.6139
a 3815 2574 14.7175
a 3815 11381 1.9296
a 3816 13218 4.9957
a 3816 3949 3.8556
a 3817 2099 3.5597
a 3817 9678 2.2471
a 3817 4029 50.7077
a 3818 7859 2.9952
a 3818 12057 0.815
a 3819 3998 56.4126
a 3819 3651 4.6282
a 3819 3686 45.1523
a 3820 3767 19.6151
a 3820 3743 27.3546
a 3820 8283 50.3966
a 3821 2740 4.3366
a 3821 3656 4.2149
a 3821 1808 10.1261
a 3821 3809 10.2672
a 3822 3795 9.2772
a 3822 7349 13.8571
a 3822 3620 14.7809
a 3823 3995 4.7038
a 3823 3632 15.565
a 3823 3918 7.3541
a 3824 8348 7.0157
a 3824 2671 13.3488
a 3824 3798 5.8572
a 3825 3763 2.4401
a 3826 3801 4.0298
a 3827 7691 152.1591
a 3827 4071 76.683
a 3827 3687 13.0838
a 3827 7617 357.486
a 3828 4058 3.5921
a 3828 3761 18.7812
a 3828 8733 3.6583
a 3829 3968 7.1467
a 3829 10031 59.449
a 3829 3990 6.187
a 3830 13196 0.7477
a 3830 12452 3.1334
a 3830 12088 4.6094
a 3831 2939 6.611
a 3831 4000 12.155
a 3831 3955 7.2698
a 3832 3621 3.883
a 3832 402 43.4334
a 3832 3725 17.3772
a 3833 3880 4.8262
a 3833 2142 4.7606
a 3833 10295 4.3524
a 3834 3780 4.0457
a 3834 12399 3.9154
a 3834 3803 61.956
a 3835 3908 10.0123
a 3835 3640 3.4373
a 3835 3645 5.9191
a 3836 3667 2.6179
a 3836 3899 3.1306
a 3836 3779 171.7993
a 3837 10296 7.1647
a 3837 2970 9.6055
a 3837 3732 24.0581
a 3838 2578 5.369
a 3838 2587 3.9982
a 3838 3966 10.525
a 3839 12128 2.0131
a 3839 3952 4.0572
a 3839 3977 5.3705
a 3840 3634 8.3203
a 3840 3011 3.3235
a 3840 3076 3.353
a 3841 3657 264.5617
a 3841 3924 3.7879
a 3841 10043 0.3319
a 3842 4030 397.7764
a 3842 3954 10.4069
a 3842 3741 8.3477
a 3843 13171 5.8975
a 3843 4038 1.7453
a 3844 12989 2.7576
a 3844 7695 10.89
a 3845 3753 11.5963
a 3845 4064 35.7215
a 3845 3658 1.0152
a 3846 3214 3.8686
a 3846 2662 1.1542
a 3846 12432 1.075
a 3847 3858 7.8638
a 3847 8063 14.9203
a 3847 2135 428.4395
a 3848 3965 12.3854
a 3848 3796 12.1198
a 3848 7627 7.2554
a 3849 3670 3.0031
a 3849 4022 12.276
a 3850 8529 2.5855
a 3850 3674 98.5579
a 3850 12084 3.4178
a 3851 9824 4.3178
a 3851 8381 0.8114
a 3851 3924 3.1932
a 3852 3718 9.5342
a 3852 3957 3.4567
a 3852 5356 2.5373
a 3853 4062 6.3144
a 3853 3985 4.387
a 3853 2928 8.4931
a 3854 10037 1.589
a 3854 10038 1.7921
a 3854 3933 15.9602
a 3855 3970 5.4043
a 3856 3877 61.9807
a 3856 4003 407.0035
a 3856 3814 3.667
a 3857 9020 0.6084
a 3857 7064 2.1557
a 3857 7063 22.3327
a 3858 3006 5.1638
a 3858 3847 7.8638
a 3858 12508 3.9233
a 3859 4034 6.1805
a 3860 13327 0.4723
a 3860 8149 124.8363
a 3861 3998 6.8249
a 3861 4001 588.7831
a 3861 4002 3.7829
a 3862 4052 31.7272
a 3862 8259 6.8796
a 3862 11268 1.2074
a 3863 3787 3.7274
a 3864 3911 1.9706
a 3864 12486 0.7006
a 3864 9578 9.0986
a 3865 4063 7.9776
a 3865 2968 3.4279
a 3866 12053 1.2478
a 3866 13238 0.4406
a 3867 3705 4.2991
a 3867 4031 8.743
a 3867 3950 2.2478
a 3868 3764 10.9771
a 3868 7654 21.2422
a 3869 3621 6.5707
a 3869 3643 10.1714
a 3869 12032 7.0898
a 3870 12115 0.3917
a 3870 5990 3.793
a 3870 11649 10.4854
a 3871 3641 255.6196
a 3871 3948 14.2092
a 3871 3679 9.1368
a 3872 3761 3.6641
a 3872 8611 5.2898
a 3872 3749 15.9602
a 3872 12470 17.1763
a 3873 5982 11.6482
a 3873 5984 34.8441
a 3873 9345 1.0433
a 3874 2197 11.1931
a 3874 3730 5.7931
a 3874 7043 17.9762
a 3875 3944 2.6741
a 3875 3670 44.4221
a 3875 3723 14.1221
a 3876 11721 8.4708
a 3877 3856 3.8916
a 3877 7700 5.5692
a 3877 13211 11.9246
a 3878 4242 8.7163
a 3878 12058 11.219
a 3878 4241 4.4734
a 3879 2575 3.1702
a 3879 2574 4.7786
a 3879 3647 29.5328
a 3880 3833 22.7842
a 3880 2118 3.9233
a 3880 2124 4.0529
a 3880 2125 8.3448
a 3881 13188 1.5444
a 3881 1808 3.9888
a 3881 2606 3.8246
a 3881 3656 6.8868
a 3882 3890 3.6576
a 3882 7910 5.7413
a 3882 2756 3.69
a 3882 4085 194.8393
a 3883 3994 2.0974
a 3884 3699 4.8348
a 3884 4065 3.6094
a 3884 3959 6.246
a 3885 8309 32.6506
a 3885 11483 17.6494
a 3886 2191 7.6241
a 3886 3684 7.2641
a 3886 4060 4.1486
a 3886 3940 3.9607
a 3887 3614 5.526
a 3887 8281 3.9917
a 3887 10396 9.5443
a 3888 3786 3.7829
a 3888 3772 24.7867
a 3888 2784 12.4862
a 3889 3938 17.6071
a 3889 2114 4.0867
a 3889 3896 8.8034
a 3890 3882 3.6576
a 3890 3706 10.139
a 3890 3742 3.0845
a 3890 3771 3.3883
a 3891 10929 0.8849
a 3891 11060 7.1798
a 3891 12056 1.525
a 3892 3668 2.9023
a 3892 7405 12.1493
a 3892 12519 2.7238
a 3892 3959 535.0509
a 3893 12810 2.9894
a 3893 3630 16.7602
a 3893 3627 3.96
a 3894 4061 6.6614
a 3894 4061 10.2413
a 3894 12990 9.3513
a 3895 4070 4.8413
a 3895 3675 4.7772
a 3895 8844 16.5247
a 3896 2133 4.0428
a 3896 3889 8.8034
a 3896 3719 5.3129
a 3896 2114 10.661
a 3897 8062 3.6907
a 3897 3758 4.5166
a 3897 8063 8.1756
a 3898 3965 5.7341
a 3898 3906 2.1809
a 3898 7626 4.446
a 3899 3765 16.6104
a 3899 3836 3.1306
a 3899 3957 3.8052
a 3900 3669 8.3866
a 3901 3681 42.6439
a 3901 3911 9.396
a 3901 3757 10.1534
a 3902 3974 5.0285
a 3902 3619 5.0436
a 3902 8838 11.669
a 3903 11273 11.9196
a 3903 4034 149.301
a 3903 3308 10.1369
a 3904 3716 4.1854
a 3904 4044 5.1732
a 3904 4043 10.4191
a 3905 3780 9.7164
a 3905 8368 9.4169
a 3905 10382 3.4992
a 3906 3898 10.1821
a 3906 4076 4.4438
a 3906 4066 14.5548
a 3907 8663 10.2197
a 3907 8732 6.0883
a 3907 11189 354.065
a 3908 3835 10.0123
a 3908 3992 2.9765
a 3908 6030 6.9991
a 3909 2928 1.5725
a 3909 2888 5.8183
a 3909 3731 20.5531
a 3910 3943 5.8946
a 3910 4009 3.6072
a 3910 3793 4.1198
a 3911 3864 1.9706
a 3911 3901 9.396
a 3912 2584 3.6374
a 3912 2583 2.5603
a 3912 3966 14.4115
a 3913 4039 6.7673
a 3913 3959 8.095
a 3913 4009 4.0478
a 3914 2970 14.1437
a 3914 2925 7.4189
a 3914 3698 12.7462
a 3915 3996 1.7064
a 3915 2686 151.0627
a 3915 2672 3.335
a 3916 4067 6.1754
a 3916 3696 4.811
a 3916 3747 270.9672
a 3917 9125 7.5715
a 3917 9125 11.147
a 3917 2676 9.2887
a 3918 3777 3.4013
a 3918 7402 8.6998
a 3918 3823 7.3541
a 3919 12647 0.7118
a 3919 10380 2.0426
a 3919 4090 6.6492
a 3920 3261 7.0654
a 3920 3238 26.2728
a 3920 11304 7.3166
a 3921 11473 3.1982
a 3921 3702 3.7685
a 3921 9187 10.8857
a 3922 3973 4.3301
a 3922 3785 31.4053
a 3922 2604 16.4207
a 3923 3707 21.99
a 3923 4078 15.2114
a 3923 10379 5.1408
a 3924 3979 6.3634
a 3924 3851 3.1932
a 3924 3841 3.7879
a 3925 7846 72.1224
a 3925 9823 4.2761
a 3925 12576 0.8186
a 3926 12471 18.4267
a 3926 12072 16.1806
a 3927 7941 0.6941
a 3928 2196 89.1396
a 3928 2601 39.862
a 3928 3738 6.3022
a 3929 3663 6.7082
a 3929 3956 346.7478
a 3930 10397 0.5501
a 3931 3748 11.5906
a 3931 3641 5.3863
a 3931 9108 3.7123
a 3932 3805 8.1864
a 3932 4041 12.5978
a 3933 2791 1.9354
a 3933 3854 15.9602
a 3933 2788 13.7354
a 3934 3989 10.7064
a 3934 8532 6.0365
a 3934 4081 4.3466
a 3935 7338 94.4965
a 3935 2146 7.1806
a 3936 7733 27.9158
a 3937 11113 3.5647
a 3937 12755 2.1946
a 3937 4003 3.5914
a 3938 2144 4.2768
a 3938 3889 9.3933
a 3938 3719 8.7048
a 3939 2730 26.3324
a 3940 2188 7.3462
a 3940 9824 7.2713
a 3940 3886 3.9607
a 3940 10043 4.433
a 3941 3711 3.0866
a 3942 7408 1.062
a 3942 7856 209.2957
a 3943 3910 5.8946
a 3943 3646 5.4446
a 3943 4009 258.016
a 3944 3670 23.7622
a 3944 3849 8.6335
a 3945 3763 12.1853
a 3945 3021 108.0608
a 3945 4077 3.5546
a 3946 13398 384.606
a 3946 8062 5.8795
a 3947 3633 8.9093
a 3947 8846 829.2641
a 3947 12767 8.969
a 3948 3748 6.012
a 3948 5994 6.4397
a 3948 3871 14.2092
a 3949 12810 3.623
a 3949 4036 4.8391
a 3949 3816 3.8556
a 3950 3639 5.1646
a 3950 3779 179.2887
a 3950 3867 2.2478
a 3951 3769 4.127
a 3952 8918 3.8282
a 3952 3839 4.0572
a 3952 2678 5.0234
a 3953 3669 16.8649
a 3953 8259 22.147
a 3953 8355 17.4629
a 3954 3666 3.8981
a 3954 3792 3.9751
a 3954 3842 47.1054
a 3955 3032 4.1018
a 3955 3057 18.3334
a 3955 3831 7.2698
a 3956 3771 1.9274
a 3956 3929 14.2121
a 3957 3852 3.4567
a 3957 11113 65.5777
a 3957 3899 3.8052
a 3958 8935 6.4188
a 3959 3892 881.7107
a 3959 3913 8.095
a 3959 3884 136.0219
a 3960 7766 1.1203
a 3960 8786 3.6734
a 3961 8695 3.1874
a 3961 3741 5.891
a 3961 8337 3.2328
a 3961 3792 18.3362
a 3962 3679 7.4916
a 3962 7700 3.8412
a 3962 9612 6.5959
a 3963 4067 6.4642
a 3963 3721 5.0825
a 3963 3739 6.8054
a 3964 4017 2.4552
a 3964 3668 4.5461
a 3964 9186 15.7183
a 3965 3898 5.7341
a 3965 3848 12.3854
a 3965 4066 15.9739
a 3966 13176 3.5618
a 3966 2602 4.4921
a 3966 3838 33.5783
a 3966 3912 14.4115
a 3967 4081 3.551
a 3967 3988 3.7534
a 3967 3800 10.5667
a 3968 8844 5.5411
a 3968 3829 7.1467
a 3968 3734 13.7858
a 3968 8846 5.3698
a 3969 7482 7.0337
a 3969 7558 2.2716
a 3970 3855 5.4043
a 3970 3744 2.497
a 3970 12647 10.2578
a 3971 4065 5.2481
a 3971 2720 7.5146
a 3971 3793 4.0572
a 3972 3988 9.0072
a 3972 4019 3.7786
a 3972 3800 4.212
a 3973 2199 2.1384
a 3973 3922 4.3301
a 3973 2603 5.0422
a 3974 3650 7.6579
a 3974 3902 107.9793
a 3974 3644 4.3906
a 3975 3787 6.5902
a 3975 3652 3.5496
a 3975 3688 14.968
a 3976 4255 3.137
a 3976 3744 25.4614
a 3976 4260 5.8486
a 3977 3839 55.4555
a 3977 2677 2.9635
a 3977 2681 6.102
a 3978 3758 53.2259
a 3978 3758 58.4357
a 3978 3116 547.22
a 3979 3924 6.3634
a 3979 3657 3.8376
a 3980 3718 205.5927
a 3980 9108 3.2083
a 3980 3782 92.6031
a 3981 3800 4.2466
a 3981 3686 5.2027
a 3981 7472 2.0923
a 3982 3705 11.3422
a 3982 3997 13.0961
a 3982 4045 3.5294
a 3983 11303 0.3427
a 3983 12475 3.9398
a 3983 3620 4.153
a 3983 12324 3.9355
a 3984 10296 8.9057
a 3985 3853 4.387
a 3985 2939 196.552
a 3985 11714 6.3252
a 3986 2735 3.9982
a 3986 2192 4.536
a 3986 4060 5.2488
a 3987 3678 6.2626
a 3987 2598 3.9809
a 3988 3755 1.4868
a 3988 3972 9.0072
a 3988 3967 3.7534
a 3989 7472 1.0836
a 3989 3934 10.7064
a 3989 4001 7.1467
a 3990 3734 5.346
a 3990 3829 6.187
a 3990 3685 7.5694
a 3991 11552 3.312
a 3992 3908 2.9765
a 3992 8829 2.358
a 3992 3807 4.8161
a 3993 3787 3.461
a 3993 3688 6.5995
a 3993 4046 6.294
a 3993 3084 9.4759
a 3994 3617 5.4893
a 3994 3763 3.5532
a 3994 3883 2.0974
a 3995 3823 45.4207
a 3995 4019 3.7073
a 3995 3777 11.489
a 3996 3915 1.7064
a 3997 3705 16.3649
a 3997 3679 31.708
a 3997 3982 13.0961
a 3998 4001 5.0638
a 3998 3861 6.8249
a 3998 3819 3.1608
a 3999 10040 36.2472
a 4000 3148 4.2113
a 4000 2939 57.4339
a 4000 3831 12.155
a 4001 3998 5.0638
a 4001 3989 179.7363
a 4001 3861 13.1846
a 4002 3651 8.8474
a 4002 4089 15.3035
a 4002 3861 3.7829
a 4003 3765 3.5856
a 4003 3856 17.028
a 4003 3937 3.5914
a 4004 4056 5.6659
a 4005 4063 6.4116
a 4005 3165 11.731
a 4005 897 31.4582
a 4006 12501 0.5472
a 4006 12082 40.1386
a 4006 4086 13.3546
a 4007 8701 7.6264
a 4007 3746 9.2988
a 4007 4075 7.9488
a 4008 2736 75.93
a 4008 2738 3.0737
a 4008 8382 6.6391
a 4009 3910 3.6072
a 4009 3943 9.5573
a 4009 3913 4.0478
a 4010 3655 9.4068
a 4010 2708 8.6278
a 4010 3653 5.5742
a 4011 3804 7.4988
a 4011 4079 3.6346
a 4011 3735 8.7955
a 4012 7976 58.676
a 4012 4057 11.2082
a 4012 4099 10.3853
a 4013 3710 18.7645
a 4013 11084 4.1177
a 4014 7941 2.0815
a 4014 7942 12.865
a 4014 3628 107.1735
a 4015 5993 26.7975
a 4015 5994 3.3271
a 4015 10311 7.7623
a 4015 4074 8.1504
a 4016 3701 10.5748
a 4016 4076 15.1301
a 4016 4076 9.2945
a 4017 3964 2.4552
a 4017 12055 0.7294
a 4017 12050 15.5462
a 4018 8355 30.4551
a 4018 3751 5.1754
a 4018 10904 8.3434
a 4019 3995 3.7073
a 4019 3661 3.317
a 4019 3972 3.7786
a 4020 4088 6.3367
a 4020 3662 3.7274
a 4020 8381 3.7908
a 4021 4068 10.0634
a 4022 2684 13.7218
a 4022 12323 11.8721
a 4022 3849 12.276
a 4023 12404 1.9872
a 4023 2755 8.3412
a 4023 4073 6.7039
a 4023 399 4.7693
a 4024 12649 0.6761
a 4024 13317 3.8628
a 4024 9493 6.0646
a 4025 3697 8.9322
a 4025 12398 0.7618
a 4025 3750 5.3381
a 4026 10975 2.2104
a 4026 3690 4.9327
a 4026 3711 5.1732
a 4027 11890 2.0498
a 4027 8675 102.1798
a 4028 8102 5.3856
a 4028 8106 0.7106
a 4028 10222 4.8607
a 4029 3817 9.1598
a 4030 3842 7.1467
a 4030 3781 22.1918
a 4030 10036 9.6293
a 4030 9747 28.6913
a 4031 3691 3.2688
a 4031 4045 8.2778
a 4031 3867 8.743
a 4032 3734 4.6404
a 4032 8149 20.6078
a 4032 3672 13.7081
a 4033 4063 15.7061
a 4033 2046 16.3224
a 4033 4091 22.7607
a 4034 3903 3.6799
a 4034 8794 12.4351
a 4034 3859 19.7233
a 4035 3776 4.3783
a 4035 8532 5.3964
a 4035 3614 10.0922
a 4036 12472 2.2572
a 4036 12473 0.7891
a 4036 7765 14.4727
a 4036 3949 4.8391
a 4037 2684 4.7815
a 4037 12594 1.0066
a 4037 12036 11.6186
a 4037 9385 7.8761
a 4038 3843 1.7453
a 4038 8259 7.2389
a 4038 3911 9.4349
a 4039 9644 5.0479
a 4039 3913 6.7673
a 4039 3793 5.2092
a 4040 3753 274.2532
a 4041 8567 3.7678
a 4041 8256 93.1131
a 4042 401 2.2802
a 4042 2731 2.3681
a 4042 10382 5.1826
a 4043 3681 124.9474
a 4043 3904 126.3687
a 4043 3766 3.3307
a 4044 3904 5.1732
a 4045 4031 8.2778
a 4045 3782 1.9958
a 4045 3982 3.5294
a 4046 3993 76.6054
a 4047 12016 9.0151
a 4047 12016 10.4717
a 4047 3746 2.4566
a 4048 3757 4.1724
a 4048 9019 71.9496
a 4049 3675 8.7365
a 4049 3633 4.4064
a 4049 8845 5.7514
a 4050 8375 4.0954
a 4050 2793 3.3106
a 4050 3673 3.955
a 4051 13240 5.5245
a 4051 8377 2.4739
a 4052 3862 7.9394
a 4053 3021 12.2976
a 4053 3060 22.9639
a 4053 3763 3.5561
a 4053 2145 6.4786
a 4054 13179 44.9974
a 4054 8673 10.7446
a 4054 4083 12.8434
a 4055 3706 2.9779
a 4056 11850 3.3458
a 4056 4004 1.3738
a 4056 3802 5.7694
a 4057 4100 89.4569
a 4057 4012 11.2082
a 4057 12808 20.0023
a 4058 3828 3.5921
a 4058 3761 19.746
a 4058 3254 7.8221
a 4059 2127 199.6862
a 4059 9669 3.0823
a 4060 3986 18.1931
a 4060 8382 6.9818
a 4060 2735 3.8635
a 4060 3886 4.1486
a 4061 3894 60.0553
a 4061 3894 10.2413
a 4061 8931 0.9792
a 4062 3731 1.8425
a 4062 3853 6.3144
a 4062 2928 10.4443
a 4063 3106 17.6722
a 4063 4033 15.7061
a 4063 4005 6.4116
a 4063 3865 100.2774
a 4064 8547 48.004
a 4064 8533 10.4321
a 4064 3845 6.5009
a 4065 3971 5.2481
a 4065 3884 3.6094
a 4065 9681 8.3851
a 4066 3906 14.5548
a 4066 3796 4.3697
a 4066 3965 15.9739
a 4067 3916 6.1754
a 4067 3963 6.4642
a 4067 12058 9.7524
a 4068 2580 4.0133
a 4068 2579 3.888
a 4068 4021 10.0634
a 4069 3715 2.9095
a 4069 11308 1.8295
a 4069 7976 6.6362
a 4070 3799 4.6354
a 4070 3895 4.8413
a 4070 10031 9.6358
a 4071 2695 36.1339
a 4071 3714 19.4796
a 4071 3827 11.4134
a 4072 3739 4.2084
a 4072 3722 2.6395
a 4072 3722 44.0615
a 4073 12633 72.9353
a 4073 4023 6.7039
a 4073 2755 11.7763
a 4074 5992 4.3798
a 4074 8786 16.614
a 4074 4015 8.1504
a 4075 12016 3.883
a 4075 4007 7.9488
a 4075 7616 4.1335
a 4076 3906 4.4438
a 4076 4016 15.1301
a 4076 4016 9.2945
a 4077 3617 6.5801
a 4077 3945 3.5546
a 4077 2871 1.1743
a 4078 2755 5.0717
a 4078 3923 15.2114
a 4078 2754 2.9851
a 4079 4011 3.6346
a 4080 1811 4.4345
a 4080 12758 3.1896
a 4080 2197 4.1501
a 4081 3967 3.551
a 4081 3934 4.3466
a 4081 7472 106.6818
a 4082 3690 75.4719
a 4083 9855 0.9583
a 4083 4054 12.8434
a 4083 8674 1.129
a 4083 3629 5.7542
a 4084 13220 0.6329
a 4084 13224 2.3882
a 4085 13555 0.7805
a 4085 3637 6.6362
a 4085 3882 7.4441
a 4086 4006 13.3546
a 4086 11483 10.6754
a 4086 7616 37.5991
a 4087 2753 2.7115
a 4088 4020 6.3367
a 4088 3790 108.5116
a 4089 4002 1.8144
a 4090 2751 4.8485
a 4090 11970 3.762
a 4090 3919 6.6492
a 4091 3349 41.9526
a 4091 2047 14.6074
a 4092 401 13.837
a 4092 2734 4.7844
a 4092 3649 12.4654
a 4093 4094 10.6049
a 4093 1623 170.3077
a 4093 1600 5.5246
a 4094 1623 5.0954
a 4094 2775 5.4886
a 4094 4095 20.5654
a 4094 4093 10.6049
a 4095 1574 5.5238
a 4095 1622 5.3561
a 4095 4094 20.5654
a 4096 1521 49.3777
a 4096 1786 2.0261
a 4097 1381 34.8723
a 4097 1351 3.9082
a 4097 4098 5.189
a 4098 1350 3.6497
a 4098 1382 3.4106
a 4098 4097 5.189
a 4099 8820 1.5091
a 4099 13210 0.6156
a 4099 4012 10.3853
a 4100 9610 4.3013
a 4100 4057 32.5149
a 4100 12809 0.5076
a 4101 10872 0.8086
a 4101 10872 17.6335
a 4102 11314 0.4918
a 4102 4126 9.9727
a 4102 3642 5.7017
a 4103 4126 4.5857
a 4104 4105 16.1086
a 4104 4123 115.4994
a 4104 9615 7.9589
a 4105 4104 16.1086
a 4105 9615 5.6146
a 4105 3813 3.353
a 4106 10873 4.2545
a 4106 9608 2.1722
a 4106 10875 24.6497
a 4106 4107 1.9498
a 4107 4106 1.9498
a 4107 4107 17.1533
a 4107 4107 17.1533
a 4108 10185 0.3766
a 4108 12495 7.3591
a 4108 5849 13.8463
a 4109 8587 16.3267
a 4109 4110 8.9712
a 4109 10185 4.703
a 4110 4125 4.0882
a 4110 4113 6.169
a 4110 4109 8.9712
a 4111 4121 75.0408
a 4111 8913 122.2988
a 4111 4115 6.6139
a 4111 11991 8.2519
a 4112 4122 3.7836
a 4112 11326 1.579
a 4112 6058 6.1135
a 4112 4121 4.1213
a 4113 4110 6.169
a 4113 4114 5.5174
a 4113 6058 5.0868
a 4114 4125 2.6683
a 4114 8316 3.8354
a 4114 4113 177.8329
a 4115 4121 6.4231
a 4115 7943 1.4702
a 4115 4111 6.6139
a 4116 7943 57.8529
a 4116 4117 8.5853
a 4116 4119 120.2003
a 4117 4116 8.5853
a 4117 4120 7.8358
a 4117 4119 3.6929
a 4118 8586 4.0766
a 4119 4117 3.6929
a 4119 4116 12.5539
a 4119 8316 3.6742
a 4120 7943 88.3238
a 4120 4122 3.2969
a 4120 4117 7.8358
a 4121 4111 298.7859
a 4121 4115 6.4231
a 4121 4112 4.1213
a 4122 4112 38.6905
a 4122 4120 17.6587
a 4122 8316 14.1516
a 4123 4104 10.4832
a 4123 4124 13.5641
a 4123 9613 4.5137
a 4124 9609 11.2536
a 4124 4123 13.5641
a 4124 9613 6.8782
a 4125 4126 3.5957
a 4125 4114 2.6683
a 4125 8676 6.4159
a 4125 4110 4.0882
a 4126 4103 4.5857
a 4126 4125 13.5462
a 4126 4102 9.9727
a 4127 8675 1.2211
a 4128 7814 9.7027
a 4128 8284 1.4825
a 4128 11521 10.1887
a 4128 12608 247.9515
a 4129 13180 3.7584
a 4129 9757 25.3728
a 4129 2670 20.2392
a 4130 6374 63.5679
a 4130 4134 5.4461
a 4131 4130 10.2758
a 4131 11531 4.4791
a 4132 4131 3.2803
a 4132 12689 2.016
a 4132 4133 4.9565
a 4133 4132 23.1674
a 4134 4135 7.3361
a 4134 4130 16.3555
a 4134 6374 9.0605
a 4135 7480 7.182
a 4135 4134 7.3361
a 4135 4238 7.5463
a 4136 12364 4.1062
a 4136 7480 7.7882
a 4137 7977 2.0304
a 4137 4139 6.4087
a 4137 7343 6.4051
a 4138 7975 2.9146
a 4138 7049 3.2861
a 4138 7976 3.6468
a 4139 4137 6.4087
a 4139 7050 3.7764
a 4139 7975 11.4811
a 4140 7934 5.2999
a 4140 9002 2.8534
a 4140 8724 3.2782
a 4141 7264 548.8726
a 4141 8629 13.977
a 4141 8637 5.5238
a 4142 3312 179.7171
a 4142 5214 2.268
a 4142 5233 26.1533
a 4143 12980 0.2167
a 4143 13344 0.8758
a 4143 4278 6.3122
a 4144 11345 1.0627
a 4144 12979 4.621
a 4144 4268 4.9414
a 4144 11344 1.5012
a 4145 4265 4.6123
a 4145 12376 0.5638
a 4145 3312 7.709
a 4146 8534 2.8174
a 4146 6893 4.9046
a 4146 4473 3.5885
a 4146 4384 7.3872
a 4147 12737 0.3593
a 4147 5215 23.7888
a 4147 12981 2.0282
a 4148 12968 1.1354
a 4148 4149 5.0371
a 4148 10883 6.9149
a 4149 4427 2.2594
a 4149 9936 1.4933
a 4149 4148 171.2439
a 4150 6995 8.1703
a 4151 4394 4.2466
a 4151 5003 6.642
a 4151 4508 49.4091
a 4151 4560 14.125
a 4152 6915 1.0382
a 4152 4485 51.8573
a 4152 12087 626.7358
a 4153 4534 15.9487
a 4153 4354 11.1895
a 4153 4404 4.4424
a 4154 10756 1.1609
a 4154 4395 14.8298
a 4155 13001 5.3813
a 4155 12824 1.9901
a 4155 4395 18.545
a 4156 7589 1.2874
a 4156 9283 2.1672
a 4156 5110 6.9595
a 4157 9149 7.5434
a 4157 12345 28.5041
a 4157 10676 8.2613
a 4158 10551 6.4814
a 4158 8434 135.7858
a 4158 6401 6.3202
a 4158 12686 14.7449
a 4159 4160 6.8681
a 4159 6615 5.3964
a 4159 6364 15.6658
a 4160 6531 5.423
a 4160 4159 1.7266
a 4160 6558 16.0704
a 4161 12476 0.6365
a 4161 4162 20.2651
a 4161 12477 2.6302
a 4162 4163 12.4625
a 4162 9324 3.0499
a 4162 4161 20.2651
a 4163 4164 11.1888
a 4163 4162 12.4625
a 4163 9130 2.641
a 4163 6590 11.399
a 4164 4166 2.4653
a 4164 4163 11.1888
a 4164 6736 1.8914
a 4165 6395 3.8916
a 4166 9129 4.1753
a 4166 4164 2.4653
a 4166 6395 22.9183
a 4167 6386 4.9378
a 4167 4168 14.6261
a 4167 6540 1.7352
a 4168 4169 78.9543
a 4168 9282 5.0263
a 4168 6418 4.4582
a 4168 4167 14.6261
a 4169 6420 3.7238
a 4169 4168 17.2397
a 4169 6435 10.949
a 4170 12476 7.3858
a 4170 9150 2.2248
a 4170 4171 6.228
a 4171 6590 3.2306
a 4171 4172 13.0154
a 4171 4170 6.228
a 4172 9232 6.7493
a 4172 4173 5.8702
a 4172 4171 13.0154
a 4173 4993 5.8018
a 4173 5009 11.4372
a 4173 4172 5.8702
a 4174 4993 237.8749
a 4174 4980 4.0666
a 4174 6510 334.1516
a 4175 5048 6.5153
a 4175 5013 4.0428
a 4175 4987 7.074
a 4175 4992 178.6557
a 4176 5024 9.715
a 4176 4177 5.7118
a 4176 5004 5.0371
a 4177 6451 14.9141
a 4177 4176 5.7118
a 4177 12630 7.8019
a 4177 6510 4.7275
a 4178 12938 17.3415
a 4179 6391 3.721
a 4179 6645 3.6655
a 4179 7370 3.0946
a 4179 4180 14.8241
a 4180 6547 3.2119
a 4180 6888 3.1745
a 4180 4179 14.8241
a 4181 12279 0.5429
a 4181 4183 11.245
a 4182 9768 0.9086
a 4182 5950 20.671
a 4182 4190 4.2811
a 4183 11325 1.1858
a 4183 4184 69.7479
a 4183 4181 291.287
a 4183 5926 4.2768
a 4184 4183 45.0302
a 4184 4209 4.1544
a 4184 5932 5.1523
a 4184 4194 6.7817
a 4185 9722 1.9951
a 4185 5932 7.8106
a 4185 4213 11.5776
a 4186 4193 3.5431
a 4186 12279 4.5482
a 4186 4210 5.6426
a 4187 12278 0.2808
a 4188 4189 4.4568
a 4188 4190 18.3816
a 4188 4192 602.0544
a 4189 4188 4.4568
a 4189 12622 4.5626
a 4189 7208 4.9018
a 4190 4192 4.1407
a 4190 7861 53.5639
a 4190 4188 18.3816
a 4190 4182 4.2811
a 4191 7861 1.4126
a 4192 11790 3.7433
a 4192 4190 4.1407
a 4192 4188 18.1613
a 4192 8336 10.1455
a 4193 4186 3.5431
a 4194 5931 3.7354
a 4194 9806 2.1866
a 4194 4184 6.7817
a 4195 8327 6.7406
a 4195 9779 2.4178
a 4195 4200 16.9222
a 4196 7175 6.673
a 4196 5872 6.4087
a 4196 4198 13.626
a 4196 10833 24.4376
a 4197 11499 2.1269
a 4198 5874 4.4633
a 4198 5885 2.0894
a 4198 4196 13.626
a 4199 4216 2.0642
a 4199 4200 2.3501
a 4199 4217 14.755
a 4199 4217 8.1526
a 4200 4199 2.3501
a 4200 4228 8.6602
a 4200 4201 44.4645
a 4200 4195 16.9222
a 4201 4202 3.6994
a 4201 4200 12.3473
a 4201 4228 7.3692
a 4202 9379 38.2439
a 4202 4201 3.6994
a 4202 4227 9.8266
a 4203 4223 2.4005
a 4203 9379 2.4127
a 4203 4224 630.0653
a 4204 4223 2.9599
a 4204 4205 10.6157
a 4204 4219 9.9173
a 4205 5928 88.7246
a 4205 4219 2.3134
a 4205 13115 13.2301
a 4205 4204 10.6157
a 4206 4207 1.3428
a 4206 4218 2.3767
a 4206 5927 4.2444
a 4207 4206 1.3428
a 4208 4214 10.643
a 4208 4209 3.6864
a 4208 4213 3.6965
a 4209 4184 19.216
a 4209 4210 3.6893
a 4209 4208 3.6864
a 4210 4209 3.6893
a 4210 4186 5.6426
a 4210 4211 7.3037
a 4211 4214 34.7198
a 4211 10865 11.9146
a 4211 4210 7.3037
a 4212 4214 38.9758
a 4212 4213 12.2674
a 4212 9781 4.0824
a 4213 4212 12.2674
a 4213 4208 15.6996
a 4213 4185 80.4258
a 4214 4212 3.7649
a 4214 4211 3.6058
a 4214 4208 10.643
a 4215 9380 2.1751
a 4215 4225 102.0451
a 4216 4199 2.0642
a 4216 4229 4.3027
a 4216 4217 7.434
a 4217 4199 8.1526
a 4217 4199 14.755
a 4217 4216 7.434
a 4218 4221 2.4437
a 4218 4206 2.3767
a 4219 4222 2.3004
a 4219 4205 2.3134
a 4219 4218 14.5778
a 4219 4204 9.9173
a 4220 12370 1.6826
a 4220 4221 3.4445
a 4220 5925 12.7354
a 4220 5918 12.2357
a 4221 4225 2.3731
a 4221 4218 2.4437
a 4221 4220 3.4445
a 4221 4222 14.2366
a 4222 4223 11.1794
a 4222 4224 2.5013
a 4222 4219 2.3004
a 4223 4203 70.1829
a 4223 4222 11.1794
a 4223 4204 2.9599
a 4224 4222 31.7375
a 4224 4215 2.286
a 4224 4226 21.15
a 4224 4203 11.7634
a 4225 9381 2.3515
a 4225 4221 2.3731
a 4226 9379 263.0878
a 4226 4227 65.0946
a 4226 4224 2.3177
a 4227 4228 2.4919
a 4227 4226 2.227
a 4227 4202 9.8266
a 4228 4200 8.6602
a 4228 4227 2.4919
a 4228 4201 20.2698
a 4229 4216 4.3027
a 4229 9380 6.9674
a 4229 4230 2.1737
a 4230 4229 2.1737
a 4230 13116 9.0453
a 4230 4231 9.6156
a 4231 7903 2.3263
a 4231 13116 5.1523
a 4231 4230 9.6156
a 4232 7194 16.3368
a 4233 7194 9.2513
a 4233 7452 2.4401
a 4234 7452 3.5302
a 4234 9342 5.202
a 4234 2437 23.0252
a 4235 5800 2.0837
a 4235 7640 8.0215
a 4235 5807 9.6221
a 4236 5814 5.5051
a 4236 10437 6.8947
a 4236 11856 13.8485
a 4237 7453 0.6098
a 4237 5717 23.2387
a 4238 4239 6.3576
a 4238 8660 17.941
a 4238 4135 7.5463
a 4239 3807 3.4949
a 4239 7481 13.7995
a 4239 4238 6.3576
a 4240 4249 7.3894
a 4240 4246 10.3702
a 4240 4250 4.2257
a 4241 4246 3.8592
a 4241 12611 12.2364
a 4241 4243 8.465
a 4241 3878 4.4734
a 4242 10378 0.9691
a 4242 4243 6.0098
a 4242 3878 8.7163
a 4243 13264 0.4054
a 4243 4244 4.2178
a 4243 4241 8.465
a 4243 4242 56.4342
a 4244 4243 4.2178
a 4244 4246 9.427
a 4244 11776 13.8823
a 4244 4245 6.8602
a 4245 6023 12.1831
a 4245 4244 6.8602
a 4245 12621 10.9498
a 4245 12242 20.5546
a 4246 4241 3.8592
a 4246 4247 11.885
a 4246 4244 9.427
a 4246 4240 10.3702
a 4247 4248 1.6978
a 4247 12611 4.9464
a 4247 4246 11.885
a 4248 4247 1.6978
a 4249 4240 7.3894
a 4250 6021 4.4071
a 4250 11313 1.0375
a 4250 6022 5.2423
a 4250 4240 4.2257
a 4251 3726 1.0138
a 4251 6014 7.7983
a 4251 9060 15.3476
a 4252 6012 22.6598
a 4252 6011 5.2171
a 4252 6004 13.6843
a 4253 6012 5.2978
a 4253 4263 3.2083
a 4253 4254 7.6025
a 4254 4253 7.6025
a 4254 4261 36.5084
a 4254 6011 3.042
a 4255 3976 3.137
a 4255 12553 0.1994
a 4255 4256 9.9274
a 4256 8942 1.0289
a 4256 4255 9.9274
a 4256 4261 2.5243
a 4257 9620 2.8346
a 4257 4258 3.096
a 4257 6009 10.458
a 4257 12700 4.8283
a 4258 6010 4.2278
a 4258 4257 3.096
a 4258 6003 4.0586
a 4259 4260 9.6602
a 4259 6018 14.0083
a 4259 8563 294.0471
a 4260 4259 9.6602
a 4260 399 14.7564
a 4260 3976 71.2462
a 4261 4262 1.656
a 4261 4254 134.1714
a 4261 4256 2.5243
a 4262 4261 1.656
a 4263 4253 3.2083
a 4263 6014 9.563
a 4263 13578 10.6308
a 4264 9366 0.9864
a 4264 12470 6.7572
a 4264 8540 5.5908
a 4265 4267 250.7317
a 4265 4145 4.6123
a 4265 12375 1.6618
a 4265 11327 0.5314
a 4266 4289 5.2207
a 4266 12317 6.0653
a 4266 4283 7.5859
a 4267 4265 7.9222
a 4267 12186 0.7495
a 4267 4279 9.9446
a 4268 12980 138.8564
a 4268 11346 0.7106
a 4268 4270 6.1992
a 4268 4144 4.9414
a 4269 8779 0.6466
a 4269 4270 24.8717
a 4269 4334 5.7398
a 4269 7490 3.6526
a 4270 12340 0.4334
a 4270 4269 24.8717
a 4270 4268 6.1992
a 4271 4275 5.2078
a 4271 12667 13.8398
a 4271 4415 12.2342
a 4272 4381 3.4049
a 4272 9006 0.409
a 4272 4274 5.2078
a 4273 13344 6.6132
a 4273 3483 14.634
a 4273 4276 6.2208
a 4274 4275 18.9677
a 4274 4276 5.2726
a 4274 4272 5.2078
a 4275 4277 5.2733
a 4275 4271 5.2078
a 4275 4274 18.9677
a 4276 4277 18.9677
a 4276 4273 6.2208
a 4276 4274 5.2726
a 4277 3488 6.2698
a 4277 4275 5.2733
a 4278 13291 1.9807
a 4278 4143 70.6237
a 4278 4279 15.5095
a 4279 4281 6.75
a 4279 4278 15.5095
a 4279 4267 9.9446
a 4280 4286 2.6762
a 4280 4289 11.4199
a 4280 4284 7.5902
a 4281 4279 245.7818
a 4281 4284 6.5455
a 4281 4282 16.6579
a 4282 9003 3.0096
a 4282 10877 3.06
a 4282 4281 16.6579
a 4283 10877 3.4502
a 4283 4284 16.6478
a 4283 4266 7.5859
a 4284 4280 7.5902
a 4284 4281 6.5455
a 4284 4283 16.6478
a 4285 4369 2.1074
a 4285 4286 4.6678
a 4285 10712 17.5874
a 4286 4280 2.6762
a 4286 4285 4.6678
a 4286 4447 161.2527
a 4287 8595 0.7301
a 4287 3442 16.169
a 4288 4335 16.3796
a 4288 12966 8.6483
a 4288 7877 0.9209
a 4289 9932 1.7186
a 4289 4280 11.4199
a 4289 4266 5.2207
a 4290 4292 57.4463
a 4291 4293 2.2946
a 4292 4297 4.9853
a 4292 4295 16.0704
a 4292 4290 1.5278
a 4293 4291 2.2946
a 4293 4294 1.6135
a 4293 4296 15.9286
a 4293 4302 4.7628
a 4294 4293 1.6135
a 4295 9944 4.6476
a 4295 4292 16.0704
a 4295 4298 4.8218
a 4296 12971 2.119
a 4296 4293 15.9286
a 4296 4301 4.7959
a 4297 4292 4.9853
a 4297 4300 4.7059
a 4297 4298 256.8477
a 4298 4299 4.7974
a 4298 4295 4.8218
a 4298 4297 16.0423
a 4299 4303 4.9291
a 4299 4298 4.7974
a 4299 4300 16.0135
a 4300 4304 4.8204
a 4300 4297 4.7059
a 4300 4299 16.0135
a 4301 4296 4.7959
a 4301 4303 4.6735
a 4301 4302 15.9566
a 4302 4293 4.7628
a 4302 4304 4.7009
a 4302 4301 15.9566
a 4303 4301 4.6735
a 4303 4299 4.9291
a 4303 4304 15.9847
a 4304 4300 4.8204
a 4304 4302 4.7009
a 4304 4303 15.9847
a 4305 12168 16.3994
a 4306 12502 0.4536
a 4307 13355 0.6098
a 4308 12503 0.4536
a 4308 4319 28.1727
a 4308 10278 4.865
a 4309 12102 3.2522
a 4309 4322 14.6462
a 4309 4311 92.173
a 4310 4323 4.5029
a 4310 12001 1.818
a 4310 4322 17.1785
a 4311 4326 6.1229
a 4311 4320 1.476
a 4311 4309 13.7707
a 4312 7032 90.3202
a 4312 4324 4.4114
a 4312 4320 60.2146
a 4313 4328 6.2698
a 4313 4326 17.2116
a 4313 4314 208.6495
a 4314 4317 5.7967
a 4314 12503 4.1803
a 4314 4313 5.7118
a 4315 10282 11.309
a 4316 10282 2.1991
a 4316 8884 39.4236
a 4317 4318 4.4417
a 4317 8140 203.6508
a 4317 4314 5.7967
a 4318 4319 4.7808
a 4318 4317 4.4417
a 4318 8141 18.4565
a 4319 8142 18.4421
a 4319 4318 14.8579
a 4319 4308 41.8403
a 4320 4311 1.476
a 4320 4325 4.3754
a 4320 4312 17.4053
a 4321 4322 4.3927
a 4321 4325 4.6332
a 4321 4323 17.1612
a 4322 4321 4.3927
a 4322 4310 17.1785
a 4322 4309 14.6462
a 4323 4321 17.1612
a 4323 4310 350.8741
a 4323 4324 4.7059
a 4324 4325 17.1547
a 4324 4312 4.4114
a 4324 4323 62.4818
a 4325 4321 4.6332
a 4325 4320 54.0812
a 4325 4324 17.1547
a 4326 4311 6.1229
a 4326 4327 6.8522
a 4326 4313 17.2116
a 4327 7032 5.7326
a 4327 4326 6.8522
a 4327 4328 7.8458
a 4328 4327 7.8458
a 4328 4313 6.2698
a 4328 7032 5.2661
a 4329 9367 11.3818
a 4330 4370 5.2956
a 4330 4482 5.0969
a 4330 4424 111.4985
a 4331 1293 2.7396
a 4332 4446 3.1464
a 4332 6996 132.5258
a 4332 5026 11.1938
a 4333 4481 22.8852
a 4333 4389 5.922
a 4334 12272 0.5594
a 4334 4433 1.6344
a 4334 4269 5.7398
a 4335 8888 1.6423
a 4335 4288 11.4913
a 4335 4408 13.8348
a 4336 4487 141.9109
a 4336 4535 9.1598
a 4336 4519 9.5436
a 4337 4350 6.7673
a 4337 4549 11.407
a 4337 4495 10.3586
a 4338 4404 4.3877
a 4338 4361 14.8601
a 4338 4422 4.4827
a 4339 4355 5.5231
a 4339 9401 11.5546
a 4339 2348 12.6144
a 4340 4557 4.3675
a 4340 4524 3.2969
a 4340 4374 15.0365
a 4341 8597 0.6689
a 4341 4529 4.667
a 4341 4391 11.304
a 4342 4550 2.7518
a 4342 4331 83.8226
a 4343 4565 12.5568
a 4343 2498 3.8282
a 4343 2497 3.8945
a 4344 4462 2.4761
a 4344 4435 6.9797
a 4344 4371 8.5752
a 4345 4520 1.7302
a 4345 11668 2.2493
a 4345 11670 7.1244
a 4346 9398 4.3092
a 4346 9409 21.9694
a 4346 9397 32.5279
a 4347 4348 4.7225
a 4347 4448 25.3649
a 4347 4417 4.5648
a 4348 4347 13.0808
a 4348 4526 4.9637
a 4348 4399 25.7537
a 4349 4468 14.76
a 4349 4428 3.7094
a 4349 2497 4.0658
a 4350 4337 6.7673
a 4350 4423 17.8531
a 4350 4414 7.0466
a 4350 4403 5.6189
a 4351 4371 1.571
a 4352 4452 9.918
a 4352 4407 4.5274
a 4352 4394 3.3134
a 4353 9398 22.0094
a 4353 9387 5.1401
a 4353 9833 13.1414
a 4354 4419 272.5175
a 4354 4153 11.1895
a 4354 4399 4.4208
a 4355 4416 5.9134
a 4355 4532 4.41
a 4355 4510 5.5138
a 4355 4339 5.5231
a 4356 4367 4.7758
a 4356 4400 15.1078
a 4357 4366 37.1321
a 4357 12258 3.7771
a 4357 4538 51.395
a 4358 1323 44.015
a 4358 72 7.8682
a 4359 4464 4.572
a 4359 4370 5.8723
a 4359 8892 9.9403
a 4360 9401 29.4411
a 4361 4503 4.4554
a 4361 4419 4.3553
a 4361 4338 14.8601
a 4362 9445 17.9603
a 4362 9369 17.5428
a 4362 4472 5.5555
a 4363 4504 6.1754
a 4363 4456 12.9845
a 4363 2373 4.6627
a 4364 4475 301.3413
a 4364 4562 781.3282
a 4365 7582 220.8278
a 4365 1282 7.5247
a 4366 4357 2.7202
a 4366 4383 4.8103
a 4366 12985 19.5487
a 4367 4400 8.8805
a 4367 3430 1.2197
a 4367 13360 9.3586
a 4368 4430 15.3072
a 4368 4428 3.7814
a 4368 2496 21.3437
a 4369 10718 4.5821
a 4369 4285 2.1074
a 4369 4543 7.943
a 4370 4330 12.423
a 4370 4382 13.5014
a 4370 4359 336.9987
a 4371 4435 2.5402
a 4371 4351 1.571
a 4371 4344 133.1246
a 4372 4431 4.3632
a 4372 6927 4.261
a 4372 4416 25.0718
a 4373 4543 6.6686
a 4373 4539 7.11
a 4373 4447 6.7241
a 4374 4537 12.1375
a 4374 5003 4.2646
a 4374 4340 15.0365
a 4375 4512 3.5093
a 4376 4565 3.69
a 4376 4468 3.6562
a 4376 2497 56.5406
a 4377 11324 0.581
a 4377 4459 8.789
a 4377 4551 5.7427
a 4378 3449 5.9083
a 4378 4505 11.4307
a 4378 4505 17.303
a 4379 533 3.6166
a 4379 532 11.1931
a 4379 1273 11.3249
a 4380 8888 3.0168
a 4380 4491 10.607
a 4380 4547 4.5878
a 4381 4272 11.1828
a 4381 13254 0.7135
a 4381 4415 3.2926
a 4382 4424 5.4979
a 4382 4370 13.5014
a 4382 4540 6.0264
a 4383 4366 4.8103
a 4383 2356 12.2616
a 4383 4392 12.4949
a 4384 4392 4.914
a 4384 4146 7.3872
a 4384 8834 14.9854
a 4385 4468 3.8326
a 4385 4430 3.821
a 4385 4428 15.3598
a 4386 695 5.9188
a 4386 85 271.7315
a 4386 2561 27.2376
a 4387 4493 4.5677
a 4387 4513 18.5126
a 4387 4422 4.4755
a 4388 4532 4.2876
a 4388 2375 30.5424
a 4388 4401 404.7207
a 4389 4417 4.8715
a 4389 4333 5.922
a 4389 4426 19.3219
a 4390 8892 2.2262
a 4391 4409 5.7305
a 4391 4529 446.1073
a 4391 4341 124.1822
a 4392 4506 4.775
a 4392 4383 12.4949
a 4392 4384 4.914
a 4393 4556 4.8391
a 4393 10986 4.464
a 4393 10988 12.6929
a 4394 4560 9.8964
a 4394 4151 4.2466
a 4394 4352 3.3134
a 4395 9444 2.2889
a 4395 4512 5.1588
a 4395 4155 18.545
a 4395 4154 14.8298
a 4396 4511 5.3186
a 4397 4438 12.7109
a 4397 4438 169.2304
a 4397 4465 2.3674
a 4398 4457 10.8929
a 4398 4492 2.3566
a 4398 4559 32.2159
a 4399 4448 4.7678
a 4399 4354 18.2946
a 4399 4348 25.7537
a 4400 4367 8.8805
a 4400 10987 4.4021
a 4400 4356 39.4873
a 4400 4552 12.6979
a 4401 4418 4.4345
a 4401 2376 4.2732
a 4401 4388 12.0744
a 4401 4546 18.4342
a 4402 4524 4.4762
a 4402 12982 3.8635
a 4402 4469 15.1013
a 4403 4553 46.854
a 4403 4350 5.6189
a 4403 9370 15.8702
a 4404 4338 4.3877
a 4404 4419 12.9406
a 4404 4153 4.4424
a 4405 4557 4.734
a 4405 5194 3.0557
a 4406 4454 13.5252
a 4406 4467 5.143
a 4406 2381 15.201
a 4407 12981 2.7029
a 4407 4352 4.5274
a 4407 4413 9.918
a 4407 4469 6.6089
a 4408 4335 13.8348
a 4408 4539 5.6167
a 4408 4432 4.6994
a 4409 4458 4.9478
a 4409 4391 69.4704
a 4409 9938 6.8069
a 4410 9350 0.3132
a 4410 686 9.0115
a 4411 12197 3.9204
a 4411 4433 11.3688
a 4411 4433 5.5552
a 4412 6883 4.4978
a 4412 9474 2.3616
a 4412 4531 2.3983
a 4413 4452 27.288
a 4413 4545 0.2729
a 4413 4407 9.918
a 4414 4487 239.1472
a 4414 4350 7.0466
a 4414 4563 11.8019
a 4414 4519 979.9039
a 4415 13530 0.4802
a 4415 4271 12.2342
a 4415 4381 9.0877
a 4416 2379 5.4158
a 4416 4355 5.9134
a 4416 4372 25.0718
a 4417 4347 4.5648
a 4417 4486 25.0978
a 4417 4389 4.8715
a 4418 4401 4.4345
a 4418 4532 12.0715
a 4418 4474 223.5702
a 4418 4439 4.3222
a 4419 4354 4.6692
a 4419 4404 12.9406
a 4419 4361 4.3553
a 4420 9394 21.9722
a 4420 11436 27.8743
a 4420 4441 18.3089
a 4421 4495 4.7146
a 4421 10535 5.5678
a 4422 4503 16.6558
a 4422 4549 6.9941
a 4422 4338 4.4827
a 4422 4387 4.4755
a 4423 4553 5.6628
a 4423 4350 17.8531
a 4423 4485 11.7065
a 4424 4382 5.4979
a 4424 13002 6.2899
a 4424 4330 14.9854
a 4425 4544 4.5864
a 4425 6863 14.827
a 4425 6864 8.0136
a 4426 10533 4.2329
a 4426 4500 5.1422
a 4426 4389 19.3219
a 4427 4149 2.2594
a 4427 9936 1.8166
a 4427 10880 1.5005
a 4428 4385 15.3598
a 4428 4349 3.7094
a 4428 4368 3.7814
a 4429 4410 3.5417
a 4429 3265 8.2001
a 4430 4385 3.821
a 4430 2513 9.5976
a 4430 4368 15.3072
a 4431 4372 4.3632
a 4431 2372 4.2862
a 4431 2379 21.4409
a 4432 4408 4.6994
a 4432 4491 9.8228
a 4432 3462 7.7875
a 4433 4411 11.3688
a 4433 4411 1.8086
a 4433 4334 1.6344
a 4434 6883 2.3861
a 4434 4531 4.4194
a 4434 9475 1.0022
a 4435 4371 2.5402
a 4435 4559 3.2969
a 4435 4344 6.9797
a 4436 4541 4.4971
a 4436 4474 14.8041
a 4436 4449 5.7175
a 4436 11456 12.8138
a 4437 4507 4.2962
a 4437 9402 4.477
a 4437 9428 270.1222
a 4438 4397 179.3518
a 4438 4397 17.3527
a 4438 4445 2.322
a 4439 11456 13.1314
a 4439 4510 6.475
a 4439 4479 8.4607
a 4439 4418 4.3222
a 4440 9404 8.8682
a 4440 9456 59.9287
a 4440 4466 6.3101
a 4441 9394 7.5348
a 4441 9834 7.7688
a 4441 4420 18.3089
a 4442 2859 13.4854
a 4442 2883 9.8294
a 4442 11796 5.4511
a 4443 4544 13.7815
a 4443 12902 0.7682
a 4443 12002 5.1559
a 4443 4552 4.6512
a 4444 9402 0.8712
a 4444 9389 9.1498
a 4444 4507 7.5118
a 4445 4450 3.5518
a 4445 4438 9.0573
a 4445 4522 27.6394
a 4446 9943 3.0226
a 4446 5016 3.2702
a 4446 4332 3.1464
a 4447 12966 1.1887
a 4447 4286 41.3968
a 4447 4373 6.7241
a 4448 4399 4.7678
a 4448 4486 4.6253
a 4448 4347 319.6948
a 4449 4477 11.9426
a 4449 9521 12.3106
a 4449 4436 5.7175
a 4450 4525 2.5927
a 4450 4445 3.5518
a 4450 4465 9.2837
a 4451 2513 4.5446
a 4451 2496 4.1796
a 4451 2527 6.7435
a 4452 4352 9.918
a 4452 4560 3.2162
a 4452 4413 4.5166
a 4453 2522 36.6925
a 4453 4497 3.9499
a 4453 13031 19.9404
a 4454 4406 13.5252
a 4454 9406 4.7844
a 4454 4483 5.1574
a 4455 12099 1.6762
a 4455 4364 4.037
a 4456 4478 4.6231
a 4456 9458 4.6354
a 4456 4363 12.9845
a 4457 4559 2.3155
a 4457 4462 447.9115
a 4457 4398 10.8929
a 4457 4554 2.3774
a 4458 4409 4.9478
a 4458 4558 1.9382
a 4458 4488 17.0424
a 4459 13298 1.2089
a 4459 9326 5.1019
a 4459 4377 8.789
a 4460 4484 1.733
a 4461 4463 2.4646
a 4461 4499 2.6237
a 4461 4517 2.4473
a 4461 4525 11.9678
a 4462 4344 2.4761
a 4462 4457 11.3882
a 4462 4499 2.525
a 4463 4461 2.4646
a 4463 4465 38.0958
a 4463 4522 58.0183
a 4463 4522 12.0643
a 4464 4359 4.572
a 4464 4515 10.0102
a 4464 4540 6.2388
a 4465 4450 9.2837
a 4465 4463 18.3798
a 4465 4397 2.3674
a 4466 9844 5.2819
a 4466 4478 9.463
a 4466 4440 174.076
a 4467 4483 13.4561
a 4467 4494 4.963
a 4467 4406 5.143
a 4468 4376 3.6562
a 4468 4385 3.8326
a 4468 4349 14.76
a 4469 4537 4.4719
a 4469 4402 15.1013
a 4469 4407 64.6621
a 4470 90 17.7955
a 4470 516 2.6064
a 4470 517 18.6257
a 4471 4521 13.7297
a 4471 12967 3.065
a 4472 10535 1.9915
a 4472 4362 5.5555
a 4473 12362 0.8568
a 4473 4146 3.5885
a 4473 5296 58.2233
a 4474 4436 4.6174
a 4474 4546 4.207
a 4474 4418 22.0716
a 4475 4567 13.6987
a 4475 4471 4.0961
a 4476 4484 7.1316
a 4477 7793 8.4355
a 4477 4449 11.9426
a 4477 7783 501.8432
a 4478 4456 4.6231
a 4478 4504 9.9079
a 4478 4466 9.463
a 4479 4510 10.3802
a 4479 4528 10.967
a 4479 4439 8.4607
a 4480 3265 2.5236
a 4480 686 3.9377
a 4480 4429 6.8854
a 4481 4152 217.6232
a 4481 4500 5.5865
a 4482 10537 6.2316
a 4482 4330 5.0969
a 4482 5122 360.9178
a 4483 4467 13.4561
a 4483 4454 5.1574
a 4483 4494 191.0711
a 4484 4476 7.1316
a 4484 4460 1.733
a 4484 4559 2.3429
a 4485 4535 16.1626
a 4485 4423 11.7065
a 4485 4519 4.8809
a 4485 4152 5.6909
a 4486 4448 371.7707
a 4486 12747 2.3306
a 4486 4417 25.0978
a 4487 4336 4.6994
a 4487 10506 11.5315
a 4487 4414 17.4889
a 4488 8591 0.6502
a 4488 4458 17.0424
a 4488 4341 4.811
a 4489 2868 17.7898
a 4489 3014 3.7685
a 4489 11796 3.623
a 4490 13314 1.7129
a 4490 4511 24.3618
a 4490 12087 20.1305
a 4491 4380 10.607
a 4491 4547 14.9846
a 4491 4432 13.5356
a 4492 4554 51.7872
a 4492 7009 43.1754
a 4492 4398 2.3566
a 4493 4387 108.301
a 4493 4563 4.4021
a 4493 4514 20.4761
a 4494 4467 4.963
a 4494 9518 2.219
a 4494 4483 18.2045
a 4495 4421 4.7146
a 4495 4534 1305.2654
a 4495 4337 10.3586
a 4496 519 3.9305
a 4496 519 10.8461
a 4497 4536 10.6118
a 4497 4453 3.9499
a 4497 4502 19.8418
a 4498 2523 3.8822
a 4498 2524 3.6914
a 4498 4502 27.4018
a 4499 4554 11.9153
a 4499 4561 63.596
a 4499 4461 2.6237
a 4499 4462 2.525
a 4500 4481 5.5865
a 4500 12478 0.5393
a 4500 4426 5.1422
a 4500 4535 5.4619
a 4501 11435 9.3773
a 4502 2525 36.8446
a 4502 4498 27.4018
a 4502 13031 4.0248
a 4502 4497 19.8418
a 4503 4422 16.6558
a 4503 4513 23.3805
a 4503 4361 23.9625
a 4504 9844 5.8219
a 4504 4478 9.9079
a 4504 4363 6.1754
a 4505 4378 11.4307
a 4505 4378 17.303
a 4505 3445 6.3137
a 4506 4392 4.775
a 4506 12751 1.4753
a 4506 4508 14.4367
a 4506 4508 120.5089
a 4507 9833 1.6013
a 4507 4437 4.2962
a 4507 4444 7.5118
a 4508 12750 13.7551
a 4508 4506 149.2235
a 4508 4506 14.4367
a 4508 4151 194.1929
a 4509 9938 4.0918
a 4509 3482 14.6066
a 4509 3428 9.396
a 4510 4355 5.5138
a 4510 4479 10.3802
a 4510 4439 6.475
a 4511 7066 0.8935
a 4511 4396 23.5563
a 4511 4490 72.5582
a 4512 4375 3.5093
a 4512 4395 5.1588
a 4512 4540 3.8203
a 4513 4514 4.32
a 4513 4503 4.531
a 4513 4387 18.5126
a 4514 4526 3.6317
a 4514 4513 4.32
a 4514 4493 20.4761
a 4515 10522 3.739
a 4515 8892 4.1753
a 4515 4464 10.0102
a 4516 11045 1.8936
a 4516 2376 5.8162
a 4516 2377 97.6655
a 4517 4561 2.6114
a 4517 4461 99.7412
a 4517 12927 0.2765
a 4518 9386 19.4594
a 4518 9393 88.8211
a 4519 4336 9.5436
a 4519 4414 12.7908
a 4519 4485 4.8809
a 4520 4345 1.7302
a 4521 4567 4.1393
a 4521 11935 4.0716
a 4522 4463 7.4642
a 4522 4463 12.0643
a 4522 4445 27.6394
a 4523 4564 27.3247
a 4523 2506 3.5921
a 4523 2514 3.9924
a 4524 4340 3.2969
a 4524 4402 4.4762
a 4524 4537 721.1237
a 4525 4554 22.2646
a 4525 4450 2.5927
a 4525 7012 12.5064
a 4525 4461 11.9678
a 4526 4514 3.6317
a 4526 4348 4.9637
a 4526 10533 6.2662
a 4527 2378 4.8367
a 4528 6927 4.2595
a 4528 4555 911.4798
a 4528 4479 10.967
a 4529 8596 0.6905
a 4529 4287 4.1429
a 4529 4391 164.4518
a 4530 9388 6.3194
a 4530 9390 6.3965
a 4530 11441 25.0517
a 4531 9941 1.0548
a 4531 4434 4.4194
a 4531 4412 2.3983
a 4532 4355 4.41
a 4532 4388 4.2876
a 4532 4418 12.0715
a 4533 10799 9.18
a 4533 11995 0.5342
a 4534 10536 7.1967
a 4534 4549 3.0463
a 4534 4495 15.5484
a 4534 4153 15.9487
a 4535 4336 9.1598
a 4535 4500 5.4619
a 4535 4485 16.1626
a 4536 2526 8.6803
a 4536 4497 3.7015
a 4536 2525 19.867
a 4537 4524 502.4516
a 4537 4469 4.4719
a 4537 4374 3.4164
a 4538 12547 4.3286
a 4538 4357 14.4583
a 4538 9333 3.7109
a 4539 4408 5.6167
a 4539 3473 7.0308
a 4539 4373 7.11
a 4540 4512 3.8203
a 4540 4382 6.0264
a 4540 4464 6.2388
a 4541 4555 13.8787
a 4541 2381 59.6505
a 4541 4436 4.4971
a 4542 10988 4.8391
a 4542 7066 8.4211
a 4542 6863 136.299
a 4542 4556 12.6936
a 4543 4373 6.6686
a 4543 4548 12.3228
a 4543 4369 235.9163
a 4544 4425 4.5864
a 4544 4443 13.7815
a 4544 12742 0.8057
a 4544 4556 4.649
a 4545 4413 0.2729
a 4546 4474 4.207
a 4546 2378 4.2091
a 4546 4401 18.4342
a 4547 8595 28.8357
a 4547 4380 4.5878
a 4547 4491 14.9846
a 4548 3488 3.5993
a 4548 4543 12.3228
a 4548 3473 6.9739
a 4549 4337 11.407
a 4549 4422 6.9941
a 4549 4534 3.0463
a 4550 7582 0.707
a 4550 4342 2.7518
a 4550 1293 10.2665
a 4551 3429 1.1758
a 4551 4377 5.7427
a 4551 9485 19.8245
a 4552 10986 4.4136
a 4552 4443 4.6512
a 4552 4400 127.074
a 4553 4423 5.6628
a 4553 4403 14.5699
a 4553 9370 6.2251
a 4554 4525 2.5394
a 4554 4492 57.2898
a 4554 4499 11.9153
a 4554 4457 2.3774
a 4555 4541 13.8787
a 4555 4528 14.5634
a 4555 11456 6.1236
a 4556 4393 4.8391
a 4556 4544 4.649
a 4556 4542 12.6936
a 4557 4340 4.3675
a 4557 5003 15.0408
a 4557 12752 1.5826
a 4557 4405 4.734
a 4558 4458 1.9382
a 4559 4484 2.3429
a 4559 4457 2.3155
a 4559 4435 3.2969
a 4559 4398 12.2083
a 4560 4394 115.9322
a 4560 4452 3.2162
a 4560 4151 14.125
a 4561 4499 90.2537
a 4561 10798 1.067
a 4561 4517 2.6114
a 4562 4990 19.0523
a 4562 4364 13.6692
a 4563 4493 4.4021
a 4563 10533 18.1001
a 4563 4414 4.5533
a 4564 4523 27.3247
a 4564 2505 3.8426
a 4564 2515 3.6
a 4565 2514 3.8988
a 4565 4376 3.69
a 4565 4343 12.5568
a 4566 4342 67.7639
a 4566 11245 10.9088
a 4567 4475 13.6987
a 4567 4562 336.4265
a 4568 9041 164.9955
a 4568 12993 0.4183
a 4568 5652 4.0363
a 4568 10193 8.7811
a 4569 4603 2.6546
a 4569 4750 3.4754
a 4569 4763 10.7503
a 4570 9641 2.2918
a 4570 267 114.7548
a 4571 4599 17.0871
a 4571 4761 10.0289
a 4571 4704 3.5129
a 4572 4758 25.6687
a 4572 4687 3.7109
a 4572 4711 2.8858
a 4573 4630 19.5624
a 4573 4743 23.0813
a 4573 4628 3.7606
a 4573 9992 4.4539
a 4574 4768 3.8599
a 4574 4619 18.2714
a 4574 4647 2.6849
a 4575 4673 410.4136
a 4575 10276 4.0608
a 4576 4601 4.4316
a 4576 4772 108.4237
a 4576 4636 29.1881
a 4577 13594 95.9021
a 4577 4770 7.3145
a 4577 4611 60.8608
a 4578 4607 152.1817
a 4578 4708 15.4735
a 4578 4588 12.893
a 4579 4751 3.8426
a 4579 4764 17.55
a 4579 4602 3.7584
a 4580 4658 88.3012
a 4580 4724 19.0318
a 4580 4732 4.1407
a 4580 4589 1.5998
a 4581 4651 3.4481
a 4581 4616 3.461
a 4581 4740 24.6852
a 4582 4603 12.0211
a 4582 4618 3.0881
a 4582 4763 3.0226
a 4583 4632 8.6407
a 4583 4738 3.6454
a 4583 4745 2.8793
a 4584 4735 3.7274
a 4584 4708 35.4505
a 4584 4694 18.5522
a 4585 4639 5.0609
a 4585 9993 15.6401
a 4585 4669 13.6426
a 4586 4685 9.0166
a 4586 4769 3.5352
a 4586 9529 3.5402
a 4587 4630 4.2761
a 4588 4757 1.6999
a 4588 4607 11.0822
a 4588 4578 12.893
a 4589 4580 1.5998
a 4590 4764 3.811
a 4590 4722 9.617
a 4590 4602 17.5133
a 4591 13164 0.6242
a 4592 4616 3.3761
a 4592 4725 3.3768
a 4592 4604 16.1287
a 4593 4610 16.6054
a 4593 4697 12.7793
a 4593 4637 3.4762
a 4594 4734 12.1637
a 4594 4653 4.5864
a 4595 9411 11.5859
a 4595 4718 12.6619
a 4595 4596 28.0382
a 4596 4670 5.359
a 4596 4758 3.6101
a 4596 4595 3.6554
a 4596 4687 25.6464
a 4597 10270 6.9127
a 4597 10260 1.0116
a 4597 7883 1.6639
a 4598 12354 0.923
a 4598 12251 6.8897
a 4598 12913 3.7843
a 4599 4613 416.5016
a 4599 4639 3.3962
a 4599 4571 3.659
a 4600 4754 0.9065
a 4600 4732 21.6187
a 4600 4768 13.8673
a 4601 4620 54.9391
a 4601 4576 55.3801
a 4601 4640 3.8909
a 4602 4579 3.7584
a 4602 4679 9.4306
a 4602 4590 17.5133
a 4603 4631 2.8663
a 4603 4569 2.6546
a 4603 4582 12.0211
a 4604 4642 3.5086
a 4604 4725 14.9717
a 4604 4592 16.1287
a 4605 12907 0.9274
a 4605 4656 3.6756
a 4605 2487 25.3908
a 4605 4748 3.8009
a 4606 4732 3.8304
a 4606 4619 3.7483
a 4606 4768 20.2111
a 4607 4588 11.0822
a 4607 4747 2.929
a 4607 4578 2.795
a 4608 4622 8.0971
a 4608 4629 46.285
a 4608 8734 7.339
a 4609 4690 4.9457
a 4609 4677 7.249
a 4609 4670 3.5345
a 4610 11018 0.6631
a 4610 4593 16.6054
a 4610 4633 9.5148
a 4611 4712 6.138
a 4611 10000 11.7122
a 4612 4752 13.8012
a 4612 4766 5.5361
a 4612 4657 8.7682
a 4613 4599 13.6505
a 4613 4625 3.4445
a 4613 4667 177.6745
a 4614 4713 4.8082
a 4614 4659 5.1912
a 4614 4644 3.3286
a 4615 12893 0.8424
a 4615 13160 0.8366
a 4616 4581 3.461
a 4616 4592 3.3761
a 4616 4642 20.5978
a 4617 4737 67.0131
a 4618 4631 13.4287
a 4618 4701 3.0672
a 4618 4582 3.0881
a 4619 4606 3.7483
a 4619 4634 3.0218
a 4619 4574 18.2714
a 4620 4705 2.741
a 4620 4601 5.9688
a 4620 4655 23.7866
a 4621 10264 0.5069
a 4621 4675 4.2538
a 4621 4720 18.8208
a 4622 9638 26.2107
a 4622 4762 10.5062
a 4622 4608 8.0971
a 4623 4627 3.4272
a 4623 4658 218.634
a 4623 8708 4.0118
a 4624 4737 3.1637
a 4624 4691 4.8535
a 4624 11804 1.4674
a 4625 4613 3.4445
a 4625 4639 13.6642
a 4625 4669 3.2573
a 4626 4692 3.857
a 4626 4656 69.5523
a 4626 4675 4.459
a 4627 4680 3.6605
a 4627 4623 172.8564
a 4627 4665 27.0216
a 4628 4644 19.4962
a 4628 4698 3.8052
a 4628 4573 3.7606
a 4629 12873 5.7581
a 4629 9639 7.0668
a 4629 12046 7.285
a 4629 4608 4.5936
a 4630 4644 48.3435
a 4630 4587 4.2761
a 4630 4573 19.5624
a 4631 4728 2.7022
a 4631 4603 2.8663
a 4631 4618 13.4287
a 4632 4583 3.7138
a 4632 4753 32.6693
a 4632 4755 28.4083
a 4633 4677 93.5532
a 4633 4661 6.0163
a 4633 4610 9.5148
a 4634 4619 30.0473
a 4634 4710 2.8829
a 4634 4647 18.0799
a 4635 8737 0.6811
a 4635 4654 10.5091
a 4636 4645 4.0594
a 4636 4649 96.348
a 4636 4576 29.1881
a 4636 7637 2.227
a 4637 4593 3.4762
a 4637 4661 3.6562
a 4637 4670 9.8755
a 4638 4687 35.7724
a 4638 9528 9.5789
a 4638 4733 6.462
a 4638 4652 4.0968
a 4639 4585 5.0609
a 4639 4599 3.3962
a 4639 4625 13.6642
a 4640 4601 3.8909
a 4640 4760 18.077
a 4640 4725 11.2889
a 4641 4729 1.2298
a 4642 4604 3.5086
a 4642 4740 2.8865
a 4642 4616 20.5978
a 4643 4717 17.4989
a 4643 4733 4.3776
a 4643 4751 3.7404
a 4644 4630 3.8117
a 4644 4628 19.4962
a 4644 4614 3.3286
a 4645 4730 4.4755
a 4645 4636 4.0594
a 4645 4668 27.283
a 4646 4707 10.6718
a 4646 4738 3.8088
a 4646 4724 4.1688
a 4647 9411 3.0024
a 4647 4574 2.6849
a 4647 4670 3.9658
a 4647 4634 18.0799
a 4648 9529 9.4104
a 4648 4685 3.6
a 4648 4662 4.1177
a 4649 4655 7.3217
a 4649 4770 4.4474
a 4649 4636 35.4575
a 4650 10266 0.522
a 4650 12342 2.1996
a 4650 4591 11.8001
a 4651 4705 16.1539
a 4651 4581 3.4481
a 4651 4664 2.9405
a 4652 4667 842.1558
a 4652 4729 2.9498
a 4652 4638 4.0968
a 4652 4749 3.5719
a 4653 4674 4.7189
a 4653 4682 16.5226
a 4653 4709 10.931
a 4653 4594 4.5864
a 4654 4635 105.6228
a 4654 8736 0.7085
a 4655 4649 7.3217
a 4655 4678 3.8383
a 4655 4620 23.7866
a 4656 4626 20.9606
a 4656 4605 3.6756
a 4656 4706 3.7505
a 4657 4723 3.8066
a 4657 4698 3.7793
a 4657 4612 8.7682
a 4658 4580 4.32
a 4658 4665 3.9629
a 4658 4623 23.5332
a 4659 1666 27.2462
a 4659 9817 0.9698
a 4659 4614 5.1912
a 4660 4672 22.991
a 4660 12909 1.1844
a 4660 4686 3.2515
a 4661 4637 3.6562
a 4661 4633 6.0163
a 4661 4690 3.6821
a 4662 4648 4.1177
a 4662 9528 9.8618
a 4662 4669 4.0702
a 4663 13594 63.8484
a 4663 12240 6.7543
a 4664 4701 5.7492
a 4664 4651 2.9405
a 4664 4703 30.8462
a 4665 4658 203.4038
a 4665 4702 3.6979
a 4665 4627 27.0216
a 4666 13106 60.5213
a 4666 4678 3.9535
a 4666 4716 233.794
a 4667 4613 3.5914
a 4667 4652 9.5256
a 4667 9528 4.0313
a 4667 4761 3.6209
a 4668 4772 4.0788
a 4668 4742 19.2406
a 4668 4645 27.283
a 4669 4662 4.0702
a 4669 4585 13.6426
a 4669 4625 3.2573
a 4670 4596 5.359
a 4670 4647 3.9658
a 4670 4609 3.5345
a 4670 4637 458.75
a 4671 4755 4.3682
a 4671 4693 265.4989
a 4671 4684 9.2822
a 4672 4696 3.2206
a 4672 4691 3.3012
a 4672 4660 22.991
a 4673 4700 3.9017
a 4673 4689 28.0231
a 4673 4575 5.323
a 4674 4653 4.7189
a 4674 12872 0.7805
a 4674 4741 12.3127
a 4674 4699 6.9271
a 4675 12341 1.1441
a 4675 4733 25.1201
a 4675 4621 4.2538
a 4675 4626 4.459
a 4676 10279 0.7675
a 4676 12241 1.0699
a 4676 9998 0.8374
a 4677 4690 5.8406
a 4677 4633 3.5251
a 4677 4609 148.6795
a 4678 4666 3.9535
a 4678 4655 161.5021
a 4678 4683 579.4247
a 4679 4722 17.5298
a 4679 4602 9.4306
a 4679 2487 3.857
a 4680 4627 3.6605
a 4680 4693 3.983
a 4680 4730 71.7541
a 4681 4760 3.8758
a 4681 4719 335.2994
a 4681 4771 12.325
a 4681 4724 6.673
a 4682 4741 5.1358
a 4682 10272 5.297
a 4682 4653 16.5226
a 4683 4744 4.2185
a 4683 4705 3.2242
a 4683 4716 7.3404
a 4683 4678 19.7114
a 4684 4671 46.7392
a 4684 4695 209.7438
a 4684 4745 19.8115
a 4685 4586 9.0166
a 4685 4694 3.6994
a 4685 4648 35.4556
a 4686 4696 23.0155
a 4686 4660 3.2515
a 4686 4715 2.8649
a 4687 4697 2.947
a 4687 4572 3.7109
a 4687 4596 25.6464
a 4687 4638 4.0558
a 4688 4713 5.3885
a 4688 4752 24.0921
a 4688 4723 8.0438
a 4689 4726 4.4734
a 4689 12914 46.4872
a 4689 4673 28.0231
a 4690 4677 5.8406
a 4690 4661 3.6821
a 4690 4609 4.9457
a 4691 4672 3.3012
a 4691 4624 4.8535
a 4691 4749 13.6426
a 4692 4717 9.715
a 4692 4626 3.857
a 4692 4706 20.9347
a 4693 4702 26.2829
a 4693 4680 3.983
a 4693 4671 4.6325
a 4694 4756 22.8098
a 4694 4685 3.6994
a 4694 4584 153.7729
a 4695 4707 13.77
a 4695 4684 6.7327
a 4695 4745 16.164
a 4696 4704 2.8829
a 4696 4672 3.2206
a 4696 4686 23.0155
a 4697 9329 1.4918
a 4697 4687 2.947
a 4697 4593 516.6966
a 4698 4657 3.7793
a 4698 4628 3.8052
a 4698 4713 16.457
a 4699 9639 1.0584
a 4699 4674 6.9271
a 4700 4743 3.5921
a 4700 4673 3.9017
a 4700 4726 25.4376
a 4701 4618 3.0672
a 4701 4728 14.8781
a 4701 4664 5.7492
a 4702 4693 26.2829
a 4702 4665 3.6979
a 4702 4707 2.9196
a 4703 4740 2.9578
a 4703 4760 3.3746
a 4703 4664 30.8462
a 4704 4696 2.8829
a 4704 4715 23.0429
a 4704 4571 3.5129
a 4705 4651 16.1539
a 4705 4620 2.741
a 4705 4683 87.8206
a 4706 4692 20.9347
a 4706 4722 152.6394
a 4706 4656 3.7505
a 4707 4702 2.9196
a 4707 4646 10.6718
a 4707 4695 13.77
a 4708 4584 2.9513
a 4708 4757 9.4277
a 4708 4578 15.4735
a 4709 4699 4.721
a 4709 9638 0.9518
a 4709 4653 10.931
a 4710 4634 2.8829
a 4710 4714 3.7476
a 4710 9411 17.3376
a 4711 4572 2.8858
a 4711 9529 3.0031
a 4711 4721 109.6137
a 4712 9999 3.083
a 4712 4663 17.3225
a 4713 4614 4.8082
a 4713 4688 5.3885
a 4713 4698 16.457
a 4714 4710 12.8246
a 4714 4718 3.762
a 4714 4724 4.0183
a 4715 4686 2.8649
a 4715 4704 23.0429
a 4715 2870 3.5143
a 4716 4750 3.7901
a 4716 4683 7.3404
a 4716 4666 8.8733
a 4717 4643 17.4989
a 4717 4692 3.8246
a 4717 4739 156.317
a 4718 4746 2.9628
a 4718 4714 3.762
a 4718 4595 12.6619
a 4719 4747 2.682
a 4719 4731 3.8491
a 4719 4681 3.7094
a 4720 10265 0.5213
a 4720 11956 0.635
a 4720 4650 132.9632
a 4721 4758 2.9117
a 4721 9530 2.9664
a 4721 4711 25.6853
a 4722 4679 17.5298
a 4722 4706 4.1026
a 4722 4590 9.617
a 4723 4657 3.8066
a 4723 4688 8.0438
a 4723 4752 22.5828
a 4724 4580 19.0318
a 4724 4646 4.1688
a 4724 4714 14.1676
a 4725 4592 3.3768
a 4725 4640 11.2889
a 4725 4604 14.9717
a 4726 4766 3.7339
a 4726 4689 4.4734
a 4726 4700 25.4376
a 4727 6892 11.7194
a 4727 6971 10.5019
a 4728 4631 2.7022
a 4728 4701 14.8781
a 4728 10352 0.6581
a 4729 4737 22.1566
a 4729 4652 2.9498
a 4729 4641 1.2298
a 4730 4645 4.4755
a 4730 4742 4.5698
a 4730 4680 20.7202
a 4731 4746 3.137
a 4731 4719 3.8491
a 4731 9530 15.552
a 4732 4606 3.8304
a 4732 4580 4.1407
a 4732 4600 21.6187
a 4733 4638 6.462
a 4733 11318 1.0159
a 4733 4675 25.1201
a 4733 4643 4.3776
a 4734 9637 1.0505
a 4734 4709 75.8527
a 4735 9530 4.6094
a 4735 4584 3.7274
a 4735 4756 18.599
a 4736 13103 1.3565
a 4736 12920 1.733
a 4736 2807 31.999
a 4737 4729 22.1566
a 4737 4624 3.1637
a 4737 4617 70.9075
a 4738 4583 91.8398
a 4738 4646 3.8088
a 4738 4772 297.1353
a 4739 4764 3.8009
a 4739 4717 3.6742
a 4739 4751 17.514
a 4740 4642 2.8865
a 4740 4703 12.9843
a 4740 4581 24.6852
a 4741 8738 29.5043
a 4741 4674 12.3127
a 4741 6971 22.9932
a 4741 4682 5.1358
a 4742 4730 4.5698
a 4742 4753 4.5497
a 4742 4668 19.2406
a 4743 4573 3.7512
a 4743 4700 3.5921
a 4743 4766 23.0818
a 4744 4750 9.1188
a 4744 4763 3.8246
a 4744 4683 4.2185
a 4745 4583 2.8793
a 4745 4684 19.8115
a 4745 4695 16.164
a 4746 4731 3.137
a 4746 4718 2.9628
a 4746 4758 15.6168
a 4747 4719 2.682
a 4747 4607 2.929
a 4747 4757 12.1795
a 4748 3152 3.6958
a 4748 3069 27.4853
a 4748 4605 3.8009
a 4749 4761 9.4795
a 4749 4652 13.6936
a 4749 4691 13.6426
a 4750 4569 3.4754
a 4750 4716 3.7901
a 4750 4744 9.1188
a 4751 4579 3.8426
a 4751 4739 17.514
a 4751 4643 3.7404
a 4752 4688 7.645
a 4752 4612 4.3229
a 4752 4723 6.233
a 4753 4742 4.5497
a 4753 4755 4.3913
a 4753 4632 32.6693
a 4754 4600 0.9065
a 4755 4753 4.3913
a 4755 4671 4.3682
a 4755 4632 28.4083
a 4756 4769 5.0796
a 4756 4694 138.1122
a 4756 4735 18.599
a 4757 4588 1.6999
a 4757 4747 12.1795
a 4757 4708 95.4425
a 4758 4572 25.6687
a 4758 4596 3.6101
a 4758 4721 2.9117
a 4758 4746 15.6168
a 4759 7880 2.2766
a 4759 4615 17.9374
a 4760 4703 3.3746
a 4760 4681 14.0037
a 4760 4640 18.077
a 4761 4749 9.4795
a 4761 4667 3.6209
a 4761 4571 10.0289
a 4762 4570 38.2265
a 4762 4622 10.5062
a 4763 4569 10.7503
a 4763 4582 3.0226
a 4763 4744 3.8246
a 4764 4590 3.811
a 4764 4739 3.8009
a 4764 4579 17.55
a 4765 10277 0.8194
a 4765 9746 5.4893
a 4765 4306 5.0472
a 4766 4612 24.9373
a 4766 4726 3.7339
a 4766 1666 4.716
a 4766 4743 23.0818
a 4767 3069 3.0449
a 4767 2487 2.3911
a 4767 11128 1343.0598
a 4768 4574 3.8599
a 4768 4606 144.6796
a 4768 4600 3.6864
a 4769 4756 17.5945
a 4769 9530 18.6271
a 4769 4586 11.562
a 4770 10000 3.469
a 4770 4577 7.3145
a 4770 4649 4.4474
a 4771 4681 12.325
a 4772 4668 4.0788
a 4772 4576 4.464
a 4772 4738 15.1272
a 4773 12847 0.3715
a 4773 12848 3.4783
a 4773 69 542.066
a 4774 13095 0.4536
a 4774 6984 3.7793
a 4774 6881 2.5546
a 4775 13082 0.5976
a 4775 7303 0.7337
a 4776 10998 6.8638
a 4776 4777 3.6166
a 4777 12531 4.7138
a 4778 1143 9.8014
a 4778 6973 14.2272
a 4778 753 21.3307
a 4779 12844 0.4853
a 4779 7365 15.516
a 4779 12843 8.2083
a 4781 4782 1.0318
a 4782 7282 1.1599
a 4783 4795 1.4537
a 4784 4807 9.5371
a 4784 8765 4.0572
a 4784 4800 7.7256
a 4785 7429 20.3184
a 4785 8770 3.6706
a 4785 8771 5.2481
a 4786 7496 91.8146
a 4786 7497 21.145
a 4786 8762 5.2049
a 4787 7497 5.891
a 4787 7429 7.7774
a 4787 8766 13.0997
a 4788 8770 23.041
a 4789 5373 1.53
a 4789 4790 0.9929
a 4789 12760 1.3522
a 4790 4789 0.9929
a 4790 12761 1.3522
a 4790 4803 4.4546
a 4791 4792 0.9929
a 4791 4802 66.0698
a 4792 4790 11.7446
a 4792 4793 11.6566
a 4792 4791 0.9929
a 4793 4792 4.3639
a 4793 4794 4.5439
a 4793 4804 15.9026
a 4793 4803 600.121
a 4794 4795 11.2478
a 4794 7498 3.5654
a 4794 4793 4.5439
a 4794 4797 12.865
a 4795 4794 11.2478
a 4795 4783 1.4537
a 4795 7427 5.1293
a 4796 4797 1.6193
a 4797 4803 4.1256
a 4797 4796 4.7951
a 4797 4794 57.5078
a 4798 4799 3.6979
a 4798 7498 9.3254
a 4798 7498 20.8706
a 4799 4798 3.6979
a 4799 4804 3.8858
a 4799 4800 7.1993
a 4800 4799 234.237
a 4800 7427 12.8362
a 4800 4784 7.7256
a 4801 4802 0.9929
a 4801 4792 15.2791
a 4801 4804 3.9506
a 4802 4801 0.9929
a 4802 8768 5.8514
a 4803 4797 4.1256
a 4803 4790 107.0644
a 4803 4793 12.2918
a 4804 4799 3.8858
a 4804 4801 3.9506
a 4804 4793 15.9026
a 4805 11223 13.2641
a 4805 3610 5.2488
a 4805 4806 54.3311
a 4806 4805 10.9267
a 4806 3612 31.7762
a 4806 3611 16.1993
a 4807 7425 23.5066
a 4807 4784 9.5371
a 4807 8759 7.4081
a 4808 7421 3.4416
a 4808 6933 14.5397
a 4808 7499 4.2646
a 4809 7014 4.7606
a 4809 839 9.6581
a 4809 11739 7.0949
a 4810 834 4.9442
a 4810 4814 20.7912
a 4810 828 11.2198
a 4811 839 4.703
a 4811 836 4.9118
a 4811 4812 43.6347
a 4812 4811 4.4986
a 4813 832 4.1616
a 4814 838 4.6634
a 4814 833 5.3381
a 4814 4810 5.441
a 4815 818 27.9108
a 4815 838 85.7958
a 4815 3491 5.1437
a 4816 8045 9.7322
a 4816 840 5.2589
a 4816 846 12.8995
a 4817 847 6.7313
a 4817 817 3.0089
a 4817 846 7.4729
a 4818 9358 37.6639
a 4819 11823 5.2812
a 4820 4821 3.5402
a 4820 2305 5.4533
a 4821 4822 3.6072
a 4821 4820 3.5402
a 4821 4820 13.091
a 4822 4821 3.6072
a 4822 2306 6.8789
a 4822 4823 4.5756
a 4823 4822 4.5756
a 4823 11237 193.2051
a 4823 4824 7.439
a 4824 11823 0.5933
a 4824 2306 4.6555
a 4824 4823 7.439
a 4825 4830 1.1189
a 4826 4827 3.3156
a 4826 11275 1.8259
a 4826 4828 9.036
a 4827 4826 3.3156
a 4827 2306 2.1672
a 4827 4836 5.7096
a 4828 4829 7.0128
a 4828 4826 47.3501
a 4828 11186 9.5443
a 4829 4828 7.0128
a 4830 11830 2.443
a 4830 4825 1.1189
a 4830 11275 1.8367
a 4831 11830 211.3018
a 4832 11694 8.2037
a 4832 738 8.4247
a 4832 4833 10.242
a 4833 4834 9.5998
a 4833 7430 15.2705
a 4833 4832 10.242
a 4834 4833 9.5998
a 4834 738 341.2625
a 4835 10791 0.1757
a 4835 10042 47.8142
a 4835 2307 10.3032
a 4836 11132 2.7936
a 4836 4827 5.7096
a 4836 9362 29.8361
a 4837 8220 6.2273
a 4837 4901 6.0545
a 4837 4899 21.7922
a 4837 4844 4.6094
a 4838 4905 4.829
a 4838 10759 26.928
a 4839 4896 4.734
a 4839 4895 4.7628
a 4839 4851 15.755
a 4839 4846 21.0809
a 4840 7789 2.749
a 4840 7785 61.8384
a 4840 7998 157.7451
a 4841 4956 9.3342
a 4841 9599 3.2494
a 4841 7982 8.1338
a 4842 4952 4.7556
a 4842 4865 9.617
a 4843 4874 4.3668
a 4843 4862 2.7367
a 4844 4845 0.7128
a 4844 4837 4.6094
a 4844 4893 64.6142
a 4845 4844 0.7128
a 4846 12064 0.481
a 4846 4855 8.2843
a 4846 4899 4.5907
a 4846 4839 21.0809
a 4847 4852 6.1927
a 4848 4849 2.0671
a 4849 4848 2.0671
a 4849 4893 173.471
a 4849 4850 4.3762
a 4849 8001 10.0577
a 4850 4894 163.4627
a 4850 10502 5.688
a 4850 4897 4.5878
a 4850 4849 4.3762
a 4851 4852 4.6613
a 4851 4897 4.621
a 4851 7969 6.1553
a 4851 4839 15.755
a 4852 9981 4.7268
a 4852 4851 18.3408
a 4852 4847 6.1927
a 4852 4936 4.2307
a 4853 4935 14.2596
a 4853 9981 10.9786
a 4853 4909 124.6565
a 4853 4908 4.973
a 4854 4935 4.7002
a 4854 4858 5.1739
a 4854 4857 16.6954
a 4855 4939 5.9378
a 4855 4896 64.5972
a 4855 4846 8.2843
a 4856 4857 5.5908
a 4856 4939 4.032
a 4856 4937 17.267
a 4857 4856 5.5908
a 4857 10503 2.4602
a 4857 4854 16.6954
a 4857 4907 4.361
a 4858 4859 3.9449
a 4858 4910 357.4206
a 4858 4854 5.1739
a 4859 4858 3.9449
a 4859 4925 13.6217
a 4859 4928 7.5442
a 4860 4949 3.7037
a 4860 4880 4.7426
a 4860 4887 8.2174
a 4860 4879 13.3481
a 4861 4942 3.8722
a 4861 4882 4.7959
a 4861 4941 3.4445
a 4862 4871 8.6422
a 4862 13342 0.4594
a 4862 4843 73.1921
a 4863 4864 9.5638
a 4863 8116 31.7412
a 4864 4865 5.7636
a 4864 4953 508.0708
a 4865 4869 4.7959
a 4865 4842 9.617
a 4865 4955 13.8946
a 4866 4944 7.0243
a 4866 4874 14.6426
a 4866 4867 4.392
a 4867 4943 3.1903
a 4867 4868 7.115
a 4868 9599 1.5696
a 4868 4867 7.115
a 4868 4944 4.3942
a 4869 4866 4.4014
a 4869 4870 14.585
a 4869 4944 10.6258
a 4870 4871 2.5963
a 4870 4869 14.585
a 4870 4842 7.5305
a 4871 4862 8.6422
a 4871 4870 21.704
a 4871 4872 31.1518
a 4871 4959 10.5048
a 4872 4959 25.7732
a 4872 4873 85.2663
a 4872 4871 4.0421
a 4873 4886 7.7342
a 4873 4885 4.9788
a 4873 4872 3.5986
a 4874 4866 506.0033
a 4874 4870 19.98
a 4875 4876 4.8701
a 4875 4947 0.8302
a 4875 4882 9.7531
a 4876 13342 4.4964
a 4876 4875 4.8701
a 4876 4881 758.5658
a 4876 4880 11.0628
a 4877 4878 2.5481
a 4877 7579 19.0973
a 4878 4886 3.7325
a 4878 4885 9.2642
a 4878 4877 2.5481
a 4879 4860 13.3481
a 4880 4876 11.0628
a 4880 4860 4.7426
a 4880 10523 4.7477
a 4881 4883 4.9529
a 4881 4882 4.909
a 4881 4876 34.9905
a 4882 4881 4.909
a 4882 4861 4.7959
a 4882 4875 9.7531
a 4883 4943 4.2523
a 4883 4881 4.9529
a 4883 4843 7.1273
a 4884 4887 4.2818
a 4884 4888 14.0947
a 4884 55 6.6802
a 4885 10523 5.323
a 4885 4878 9.2642
a 4885 4873 4.9788
a 4886 4959 2.1852
a 4886 4878 3.7325
a 4886 4873 7.7342
a 4887 4884 4.2818
a 4887 4860 8.2174
a 4887 4888 11.1204
a 4888 4889 12.7217
a 4888 4887 11.1204
a 4888 4884 14.0947
a 4888 10523 3.6871
a 4889 4888 12.7217
a 4889 4877 5.9609
a 4890 12074 2.6424
a 4890 4891 150.9917
a 4891 12077 1.9793
a 4891 60 1344.5019
a 4891 4890 16.3577
a 4892 4893 1.6805
a 4893 4894 4.3027
a 4893 4892 1.6805
a 4893 4849 22.2826
a 4893 4844 19.3543
a 4894 7699 4.3942
a 4894 4893 4.3027
a 4894 4850 22.0817
a 4894 4895 11.9088
a 4895 4839 4.7628
a 4895 4894 11.9088
a 4895 4898 5.2488
a 4895 4897 19.1009
a 4896 4839 4.734
a 4896 4936 8.3527
a 4896 4855 400.4032
a 4897 4851 4.621
a 4897 4850 4.5878
a 4897 4895 19.1009
a 4898 4902 5.2639
a 4898 4895 5.2488
a 4898 7699 15.75
a 4899 4846 4.5907
a 4899 4837 21.7922
a 4899 4900 4.4791
a 4900 4899 4.4791
a 4900 4902 4.3394
a 4900 4901 78.6142
a 4901 4903 4.3171
a 4901 4837 6.0545
a 4901 4900 20.2428
a 4902 4900 4.3394
a 4902 4898 5.2639
a 4902 4903 18.4745
a 4903 4901 4.3171
a 4903 7699 4.4107
a 4903 4902 18.4745
a 4904 4906 5.1962
a 4904 6915 59.0665
a 4905 12065 1.2406
a 4905 4838 134.7767
a 4905 4906 27.1591
a 4906 4904 39.637
a 4906 12666 4.7484
a 4906 4905 27.1591
a 4907 4908 9.5825
a 4907 4857 270.6332
a 4907 4934 446.0728
a 4908 4937 56.5022
a 4908 4853 4.973
a 4908 4907 9.5825
a 4908 4934 31.2695
a 4909 4853 3.9434
a 4909 4911 10.9908
a 4909 4910 61.4784
a 4910 4858 13.2833
a 4910 4925 4.0709
a 4910 4909 6.3173
a 4911 4932 4.4395
a 4911 10491 8.6234
a 4911 4909 10.9908
a 4912 4916 5.5865
a 4912 10491 3.029
a 4912 4918 2.9326
a 4913 10481 2.0246
a 4913 4916 7.1266
a 4913 4917 7.2158
a 4914 4915 189.1109
a 4914 4922 43.7538
a 4914 4929 17.7098
a 4915 9527 1.8792
a 4915 4914 4.8046
a 4915 4923 7.879
a 4916 4913 7.1266
a 4916 4912 5.5865
a 4916 4917 11.2457
a 4917 4922 5.4857
a 4917 4913 7.2158
a 4917 4916 11.2457
a 4918 4919 4.374
a 4918 4912 2.9326
a 4918 4932 12.2371
a 4919 4920 4.3978
a 4919 4918 4.374
a 4919 4931 15.8364
a 4920 4921 4.4633
a 4920 4919 4.3978
a 4920 4927 10.7093
a 4921 4920 4.4633
a 4921 4922 3.3898
a 4921 4930 14.629
a 4922 4914 5.0832
a 4922 4917 5.4857
a 4922 4921 3.3898
a 4923 4933 10.404
a 4923 4924 9.6804
a 4923 4915 37.1147
a 4924 4929 5.2186
a 4924 4928 12.3204
a 4924 4923 9.6804
a 4925 4910 4.0709
a 4925 4931 17.1015
a 4925 4859 13.6217
a 4925 4926 4.513
a 4926 4927 4.3351
a 4926 4925 4.513
a 4926 4928 15.3972
a 4927 4930 4.3661
a 4927 4920 10.7093
a 4927 4926 4.3351
a 4928 4926 15.3972
a 4928 4859 7.5442
a 4928 4924 4.5468
a 4929 4930 4.4179
a 4929 4924 5.2186
a 4929 4914 17.7098
a 4930 4929 4.4179
a 4930 4921 14.629
a 4931 4932 4.2962
a 4931 4925 4.3596
a 4931 4919 15.8364
a 4932 4911 4.4395
a 4932 4931 4.2962
a 4932 4918 306.3137
a 4933 4923 10.404
a 4934 4935 5.1696
a 4934 4907 8.4859
a 4934 4908 9.9972
a 4935 4934 5.1696
a 4935 4854 4.7002
a 4935 4853 14.2596
a 4936 4938 5.1833
a 4936 4852 4.2307
a 4936 4896 60.0226
a 4937 4908 38.9221
a 4937 4938 6.642
a 4937 4856 17.267
a 4938 4936 5.1833
a 4938 4937 6.642
a 4938 4939 22.1105
a 4939 4856 4.032
a 4939 4855 5.9378
a 4939 4938 22.1105
a 4940 10500 1.9166
a 4940 7986 3.0276
a 4940 7988 0.329
a 4941 12008 12.8016
a 4941 4861 3.4445
a 4941 8221 13.2653
a 4942 10501 2.8152
a 4942 4943 6.017
a 4942 4861 3.8722
a 4943 4883 4.2523
a 4943 4867 3.1903
a 4943 4942 6.017
a 4944 4866 7.0243
a 4944 4869 10.6258
a 4944 4868 15.0647
a 4945 12008 1.5127
a 4945 7986 79.3
a 4945 4956 10.8886
a 4946 4947 13.3171
a 4947 4946 13.3171
a 4947 4875 0.8302
a 4947 4951 3.0643
a 4948 4949 12.9751
a 4949 4951 3.4474
a 4949 4860 3.7037
a 4949 4948 12.9751
a 4950 4951 12.677
a 4951 4950 12.677
a 4951 4947 11.6994
a 4951 4949 3.4474
a 4952 13490 2.8202
a 4952 4864 28.1086
a 4953 4864 518.5692
a 4953 10755 4.1357
a 4953 11689 7.5708
a 4954 4841 2.1571
a 4954 10760 9.7841
a 4955 10762 3.5359
a 4955 7981 10.9195
a 4956 4957 4.0968
a 4956 4841 2.3746
a 4956 4945 10.8886
a 4957 4956 4.0968
a 4957 4958 11.6885
a 4957 10492 7.4498
a 4958 4957 11.6885
a 4958 7984 59.6026
a 4958 7989 2.5798
a 4959 4886 6.5192
a 4959 4872 7.493
a 4959 4871 10.5048
a 4960 4964 13.0781
a 4960 10565 160.6438
a 4961 3122 2.79
a 4961 10748 1.5732
a 4961 10749 5.022
a 4962 10747 1.9836
a 4962 2934 9.6242
a 4962 7682 9.8532
a 4962 13366 5.6722
a 4963 10583 1.6078
a 4963 9220 1.7474
a 4963 10584 1.8274
a 4963 4967 5.4432
a 4964 10568 3.3451
a 4964 6641 6.1639
a 4965 10568 1.2593
a 4965 10571 3.2954
a 4965 10570 7.6702
a 4966 7683 6.9732
a 4966 9211 5.0371
a 4966 8429 5.8975
a 4966 2977 4.9817
a 4967 11238 107.26
a 4967 9218 1.8418
a 4967 10561 2.2673
a 4967 4963 17.6853
a 4968 4984 11.6611
a 4968 10607 88.3045
a 4968 4997 3.2155
a 4969 5062 40.8294
a 4969 5045 3.7829
a 4969 5061 199.4434
a 4969 5036 4.3265
a 4970 4976 3.8232
a 4970 5044 3.3545
a 4970 5044 9.0166
a 4971 10620 0.625
a 4971 10622 2.5956
a 4971 8430 185.148
a 4972 3598 12.7562
a 4972 3599 8.4355
a 4973 5012 4.3891
a 4973 5018 3.9499
a 4973 5043 21.0708
a 4973 4989 64.4308
a 4974 5042 3.9406
a 4974 4998 42.016
a 4974 5000 373.0911
a 4975 5019 2.8462
a 4975 5051 8.4924
a 4975 12156 3.2832
a 4976 4970 9.7822
a 4976 12953 3.0427
a 4976 4995 5.2056
a 4976 5104 27.5622
a 4977 5035 13.608
a 4977 5037 4.8485
a 4977 5001 451.0555
a 4978 5050 0.6444
a 4978 12124 4.0795
a 4978 148 462.0883
a 4979 5034 14.4698
a 4979 4992 5.621
a 4979 5049 4.3992
a 4980 4174 4.0666
a 4980 5041 262.4593
a 4980 6662 4.6375
a 4981 5052 8.4994
a 4981 5032 13.5389
a 4981 5006 6.449
a 4982 4991 6.7831
a 4983 5039 7.074
a 4983 5030 11.5524
a 4983 5029 9.7589
a 4984 5007 3.456
a 4984 5019 3.1291
a 4984 4968 11.6611
a 4985 5031 3.4855
a 4985 5103 4.1234
a 4985 4995 4.1839
a 4986 5022 3.4286
a 4986 12710 20.7338
a 4986 5042 3.9773
a 4987 5048 8.9172
a 4987 5004 4.6066
a 4987 4175 7.074
a 4988 5002 3.5446
a 4988 5013 128.5924
a 4988 5027 17.6414
a 4989 10745 3.5755
a 4989 4996 6.9775
a 4989 4973 5.2128
a 4989 5002 4.1198
a 4990 9942 3.4783
a 4990 4455 13.6397
a 4991 4982 6.7831
a 4991 5024 5.3582
a 4991 5004 10.0987
a 4992 4979 5.621
a 4992 5038 19.3522
a 4992 5006 6.2237
a 4992 4175 7.0862
a 4993 5055 4.2329
a 4993 4174 4.8024
a 4993 4173 5.8018
a 4993 5024 13.1832
a 4994 5006 9.7142
a 4995 4976 5.2056
a 4995 4985 135.0497
a 4995 5098 12.6338
a 4996 5005 2.4552
a 4996 5046 398.2403
a 4996 4989 6.9775
a 4996 10745 14.639
a 4997 5028 3.3552
a 4997 4968 3.2155
a 4997 5033 9.2232
a 4998 5040 9.3391
a 4998 4974 4.127
a 4998 5020 4.4208
a 4999 12709 19.6179
a 4999 12710 0.9367
a 5000 5049 17.0554
a 5000 4974 18.2254
a 5000 5023 3.5518
a 5000 5034 3.6353
a 5001 5045 10.1786
a 5001 10640 3.6583
a 5001 4977 7.4491
a 5002 4988 3.5446
a 5002 4989 4.1198
a 5002 5014 18.7625
a 5003 4374 4.2646
a 5003 4557 15.0408
a 5003 4151 6.642
a 5004 5017 324.1121
a 5004 4991 10.0987
a 5004 4176 5.0371
a 5004 4987 4.6066
a 5005 4996 2.4552
a 5006 4994 9.7142
a 5006 4981 6.449
a 5006 4992 6.2237
a 5007 4984 3.456
a 5007 10729 2.934
a 5007 10607 11.3774
a 5008 7074 16.9814
a 5008 7075 151.4888
a 5008 5046 5.2502
a 5009 5055 4.2271
a 5009 5054 13.0003
a 5009 4173 11.4372
a 5010 5103 5.2956
a 5010 5037 4.2458
a 5010 5104 6.8062
a 5011 5022 19.841
a 5011 5032 3.7534
a 5011 12709 3.4078
a 5012 4973 4.3891
a 5012 5049 4.0997
a 5012 5023 19.291
a 5013 4175 4.0428
a 5013 4988 3.7685
a 5013 5017 15.1135
a 5014 5046 5.742
a 5014 5027 3.8405
a 5014 5002 18.7625
a 5015 6784 10.1974
a 5015 3597 5.9954
a 5015 5025 0.5825
a 5016 12969 2.1211
a 5016 5026 4.7138
a 5016 4446 3.2702
a 5017 5027 43.3217
a 5017 5004 4.1314
a 5017 5013 15.1135
a 5018 4973 3.9499
a 5018 5047 965.2483
a 5018 12948 7.1057
a 5019 4984 3.1291
a 5019 4975 2.8462
a 5019 5028 8.3066
a 5020 5324 4.4165
a 5020 4998 4.4208
a 5020 11781 1.5415
a 5021 7586 5.0501
a 5021 7585 2.9203
a 5021 5025 14.8694
a 5021 10639 3.4265
a 5022 5011 19.841
a 5022 5038 3.6842
a 5022 4986 3.4286
a 5023 5043 3.6497
a 5023 5000 3.5518
a 5023 5040 9.8942
a 5023 5012 19.291
a 5024 4176 529.258
a 5024 5054 4.063
a 5024 4991 5.3582
a 5024 4993 13.1832
a 5025 4978 6.6427
a 5025 5021 402.0772
a 5025 5015 0.5825
a 5026 5016 4.7138
a 5026 6995 5.706
a 5026 4332 11.1938
a 5027 5014 3.8405
a 5027 5017 3.8354
a 5027 4988 17.6414
a 5028 5051 3.294
a 5028 5019 8.3066
a 5028 4997 3.3552
a 5029 5039 42.6796
a 5029 4983 9.7589
a 5029 10640 22.9848
a 5030 5047 3.6317
a 5030 10640 6.9782
a 5030 4983 11.5524
a 5031 4985 3.4855
a 5031 5035 4.1256
a 5031 5037 12.6317
a 5032 5011 99.2508
a 5032 5038 18.9022
a 5032 4981 13.5389
a 5033 4997 9.2232
a 5034 5042 17.1259
a 5034 4979 14.4698
a 5034 5000 103.0127
a 5035 5031 4.1256
a 5035 5061 2.6042
a 5035 4977 31.496
a 5036 11781 9.1246
a 5036 4969 4.3265
a 5036 5040 13.9766
a 5037 5010 4.2458
a 5037 5031 12.6317
a 5037 4977 4.8485
a 5038 5022 3.6842
a 5038 5032 18.9022
a 5038 4992 19.3522
a 5039 4983 7.074
a 5039 5029 5.8061
a 5039 5045 3.7253
a 5040 4998 9.3391
a 5040 5023 9.8942
a 5040 5036 13.9766
a 5041 4980 10.7014
a 5041 9129 8.735
a 5041 6395 5.6873
a 5042 4986 3.9773
a 5042 4974 3.9406
a 5042 5034 17.1259
a 5043 5047 3.6605
a 5043 5023 3.6497
a 5043 4973 1532.3292
a 5044 4970 9.0166
a 5044 4970 3.3545
a 5044 10653 1.4681
a 5045 4969 89.4706
a 5045 5001 10.1786
a 5045 5039 3.7253
a 5046 5014 5.742
a 5046 5008 5.2502
a 5046 4996 12.5287
a 5047 5043 3.6605
a 5047 5030 3.6317
a 5047 5018 22.6094
a 5048 4987 8.9172
a 5048 4991 4.4309
a 5048 4175 6.5153
a 5049 5000 69.135
a 5049 4979 4.3992
a 5049 5012 4.0997
a 5050 4978 0.6444
a 5050 5015 6.6593
a 5050 6785 14.4857
a 5051 4975 8.4924
a 5051 5028 3.294
a 5051 13502 5.729
a 5052 4981 9.3348
a 5053 13505 6.1423
a 5053 8430 12.9571
a 5054 5024 4.063
a 5054 5055 11.5034
a 5054 5009 13.0003
a 5055 5009 4.2271
a 5055 4993 4.2329
a 5055 5054 11.5034
a 5056 5079 4.5576
a 5056 5357 10.6524
a 5056 5081 13.153
a 5056 149 7.1633
a 5057 5079 22.4369
a 5057 5079 23.0566
a 5057 5058 93.4556
a 5058 5059 2.8267
a 5058 5080 12.1853
a 5058 5057 78.3698
a 5059 5058 2.8267
a 5059 5078 66.2076
a 5059 5060 7.6514
a 5060 5061 3.5107
a 5060 5059 7.6514
a 5060 5073 3.1766
a 5061 5035 2.6042
a 5061 4969 4.8528
a 5061 5060 3.5107
a 5062 5063 3.7267
a 5062 4969 4.2178
a 5062 5324 11.4689
a 5063 5065 10.5739
a 5063 5062 3.7267
a 5063 5320 10.3975
a 5064 10641 0.972
a 5064 5065 2.4343
a 5064 5320 3.4495
a 5065 5064 2.4343
a 5065 5357 5.5692
a 5065 5063 10.5739
a 5066 5095 3.0319
a 5066 10657 8.7445
a 5066 5093 11.9815
a 5067 5082 2.8901
a 5067 5069 9.1764
a 5067 7257 2.5934
a 5068 5095 60.628
a 5068 5090 2.813
a 5068 5092 12.0377
a 5069 5083 3.8405
a 5069 5067 9.1764
a 5069 5070 2.7094
a 5069 7256 2.7043
a 5070 5071 2.9441
a 5070 5069 2.7094
a 5070 5082 9.0533
a 5071 5078 4.0651
a 5071 5070 2.9441
a 5071 5080 8.3491
a 5071 5108 6.4836
a 5072 5077 3.744
a 5072 5075 12.0852
a 5072 5100 2.5322
a 5073 5075 3.3458
a 5073 5076 3.1003
a 5073 5060 14.3561
a 5074 5100 1.0836
a 5074 5078 3.5273
a 5074 5075 16.1222
a 5075 5073 3.3458
a 5075 5074 16.1222
a 5075 5072 12.0852
a 5076 5073 97.3765
a 5076 5077 9.0641
a 5076 5077 10.3615
a 5077 5072 3.744
a 5077 5076 9.0641
a 5077 5076 10.3615
a 5078 5074 3.5273
a 5078 5071 4.0651
a 5078 5059 18.7481
a 5079 5364 4.3337
a 5079 5057 3.101
a 5079 5057 23.0566
a 5079 5056 4.5576
a 5080 5082 2.7792
a 5080 5058 12.1853
a 5080 5071 8.3491
a 5081 7257 2.9203
a 5081 10643 9.0986
a 5081 5056 13.153
a 5082 5067 2.8901
a 5082 5080 2.7792
a 5082 5070 9.0533
a 5083 5092 2.0873
a 5083 5069 3.8405
a 5083 5091 200.9755
a 5084 5085 3.3142
a 5084 5088 3.1752
a 5084 5087 8.5248
a 5084 5102 2.9426
a 5085 5084 3.3142
a 5085 5086 11.1794
a 5085 5086 6.773
a 5086 5087 127.1059
a 5086 5085 151.9267
a 5086 5085 11.1794
a 5087 5086 2.6863
a 5087 5084 8.5248
a 5087 5089 112.6563
a 5088 5091 3.5158
a 5088 5084 3.1752
a 5088 5089 10.5322
a 5089 5088 10.5322
a 5089 5090 2.7101
a 5089 5087 2.7367
a 5090 5068 2.813
a 5090 5091 12.4625
a 5090 5089 2.7101
a 5091 5088 3.5158
a 5091 5083 3.6029
a 5091 5090 12.4625
a 5092 5083 2.0873
a 5092 5094 2.8361
a 5092 5068 12.0377
a 5093 5094 2.8519
a 5093 10643 5.981
a 5093 5066 11.9815
a 5094 5093 2.8519
a 5094 5092 2.8361
a 5094 5095 43.0163
a 5095 5094 12.047
a 5095 5066 3.0319
a 5095 5068 2.7547
a 5096 5101 5.6801
a 5097 5107 12.2494
a 5097 5098 3.587
a 5097 5105 2.7583
a 5098 5102 11.1686
a 5098 10655 2.196
a 5098 5097 3.587
a 5098 4995 42.1789
a 5099 5108 8.2289
a 5099 10655 5.6618
a 5099 5100 21.0185
a 5100 5074 1.0836
a 5100 5072 2.5322
a 5100 5099 3.0406
a 5101 5102 2.3854
a 5101 5096 5.6801
a 5101 5108 2.8051
a 5102 5101 2.3854
a 5102 5107 3.8405
a 5102 5098 11.1686
a 5102 5084 2.9426
a 5103 5010 62.45
a 5103 4985 4.1234
a 5103 5104 5.6398
a 5104 4976 3.3264
a 5104 5010 6.8062
a 5104 5103 5.6398
a 5105 5106 12.1104
a 5105 5106 16.9056
a 5105 5097 2.7583
a 5106 5105 16.9056
a 5106 5105 12.1104
a 5106 5107 2.7137
a 5107 5106 2.7137
a 5107 5102 142.6362
a 5107 5097 12.2494
a 5108 5099 8.2289
a 5108 5101 2.8051
a 5108 5071 6.4836
a 5109 4775 1.2866
a 5109 6975 3.361
a 5110 10540 586.8792
a 5110 4156 6.9595
a 5110 13003 7.9906
a 5111 5113 4.9421
a 5111 5112 23.5476
a 5111 12685 10.3702
a 5112 10539 4.6973
a 5112 5111 23.5476
a 5112 12684 4.6865
a 5113 5111 4.9421
a 5113 10541 4.5504
a 5113 9285 5.5476
a 5114 12684 0.5782
a 5114 8893 2.237
a 5114 10547 7.8386
a 5115 11724 1.6092
a 5115 10547 6.6146
a 5115 11709 3.7217
a 5116 5118 77.1357
a 5116 5117 6.6377
a 5116 12684 4.1659
a 5117 8434 102.0091
a 5117 12686 47.0743
a 5117 5116 6.6377
a 5118 11709 4.631
a 5118 5116 9.6473
a 5118 8434 223.1555
a 5119 10541 8.2778
a 5119 8895 4.5684
a 5119 8899 4.4158
a 5120 5121 47.499
a 5121 5120 12.0269
a 5121 5124 6.732
a 5121 5123 1.7114
a 5122 4482 10.9303
a 5123 5121 1.7114
a 5124 8890 14.3172
a 5124 5125 4.5439
a 5124 5121 6.732
a 5125 5124 4.5439
a 5125 8893 17.3318
a 5125 5126 5.1257
a 5126 6648 21.5028
a 5126 5127 12.7764
a 5126 5125 5.1257
a 5127 6600 1.4486
a 5127 6502 3.6749
a 5127 5126 12.7764
a 5128 5129 19.2046
a 5128 2297 6.1704
a 5128 5133 3.4682
a 5129 13152 6.9278
a 5129 5128 19.2046
a 5130 2297 6.0595
a 5131 5132 6.9178
a 5131 13158 14.3957
a 5131 6200 18.1901
a 5132 13158 6.8638
a 5132 5131 6.9178
a 5132 6201 53.588
a 5133 2300 38.6603
a 5133 13158 12.6295
a 5133 5128 3.4682
a 5134 5135 10.0829
a 5134 2299 7.7458
a 5134 5138 29.1236
a 5135 5134 10.0829
a 5135 5136 24.1956
a 5135 10473 24.503
a 5136 5135 24.1956
a 5136 10473 5.8457
a 5136 13150 2.3933
a 5137 5138 5.7305
a 5137 2300 9.7589
a 5137 95 17.1641
a 5138 5137 5.7305
a 5138 5140 1.6459
a 5138 5134 10.5574
a 5139 5140 25.6032
a 5140 5138 1.6459
a 5140 5139 25.6032
a 5140 10343 4.9752
a 5141 404 5.8457
a 5141 12683 9.9238
a 5141 12682 13.5353
a 5142 11951 2.731
a 5142 5143 3.312
a 5142 9991 2.0801
a 5143 12682 9.1836
a 5143 11600 1.8792
a 5143 5142 3.312
a 5144 5146 25.8214
a 5144 5145 3.1522
a 5144 10812 12.8182
a 5145 5144 3.1522
a 5146 405 9.1822
a 5146 404 7.7357
a 5146 5144 25.8214
a 5147 6244 11.1758
a 5147 10812 5.2135
a 5147 404 7.3735
a 5148 10825 1.2629
a 5148 5149 8.6537
a 5148 6070 9.0922
a 5149 11707 1.0476
a 5149 5148 8.6537
a 5149 5151 41.3258
a 5150 6234 1.8223
a 5151 6171 10.2017
a 5151 5154 7.7069
a 5151 5149 41.3258
a 5152 5153 17.7106
a 5153 6060 6.6282
a 5153 5152 17.7106
a 5153 9634 8.851
a 5154 11962 0.9634
a 5154 5151 7.7069
a 5154 13144 7.8876
a 5155 6214 3.2976
a 5155 6211 22.9039
a 5155 6202 5.2394
a 5156 6209 6.12
a 5156 6211 8.8776
a 5156 6204 10.0418
a 5156 6205 8.1108
a 5157 6221 1.368
a 5157 9632 3.2443
a 5157 6207 5.0335
a 5158 6227 3.0758
a 5158 6228 2.7245
a 5158 9631 3.0715
a 5159 6220 2.8793
a 5159 6225 3.3566
a 5159 11708 3.4654
a 5160 5161 1.0829
a 5160 12372 2.0736
a 5161 1660 1.3241
a 5161 5160 1.0829
a 5161 5392 2.921
a 5162 5172 32.1369
a 5162 5392 2.7072
a 5162 5178 2.8346
a 5162 5184 10.0764
a 5163 5173 2.6906
a 5163 5174 2.9059
a 5163 5184 9.9
a 5164 5171 37.9131
a 5164 5170 17.1706
a 5164 5392 9.4846
a 5165 5180 2.8778
a 5165 5166 1.0562
a 5165 5178 10.2557
a 5166 5165 1.0562
a 5167 5183 2.0484
a 5167 5189 4.9658
a 5167 5185 9.2887
a 5167 5186 4.1616
a 5168 13259 2.6114
a 5168 5174 131.2209
a 5168 5169 15.2833
a 5169 5168 3.708
a 5170 5173 2.7295
a 5170 5164 216.0082
a 5170 5171 15.714
a 5171 5172 2.6906
a 5171 5164 1.291
a 5171 5170 15.714
a 5172 5162 2.9275
a 5172 5171 2.6906
a 5172 5173 17.8654
a 5173 5170 2.7295
a 5173 5163 2.6906
a 5173 5172 17.8654
a 5174 5163 2.9059
a 5174 5188 2.9794
a 5174 5168 9.8561
a 5175 5185 12.1563
a 5175 5183 8.4866
a 5175 5176 2.7396
a 5176 5177 1.3838
a 5176 5182 38.8007
a 5176 5175 2.7396
a 5177 5176 1.3838
a 5177 5179 2.4041
a 5177 5181 7.9927
a 5178 5179 2.767
a 5178 5165 10.2557
a 5178 5162 8.4375
a 5179 5178 2.767
a 5179 5177 2.4041
a 5179 5180 8.8596
a 5180 5181 2.9434
a 5180 5165 2.8778
a 5180 5179 148.0557
a 5181 5182 2.8778
a 5181 5180 2.9434
a 5181 5177 39.8673
a 5182 5176 7.9762
a 5182 5183 2.8814
a 5182 5181 2.8778
a 5183 5175 8.4866
a 5183 5167 2.0484
a 5183 5182 2.8814
a 5184 5185 2.8598
a 5184 5163 37.2021
a 5184 5162 10.0764
a 5185 5190 3.9643
a 5185 5175 2.9657
a 5185 5184 2.8598
a 5185 5167 9.2887
a 5186 5401 10.6416
a 5186 5402 3.4682
a 5186 5167 4.1616
a 5187 13259 0.3686
a 5187 5189 2.9405
a 5187 5188 31.064
a 5188 5174 2.9794
a 5188 5190 2.9412
a 5188 5187 9.869
a 5189 5187 2.9405
a 5189 5190 9.8784
a 5189 5167 4.9658
a 5190 5188 10.1107
a 5190 5185 3.9643
a 5190 5189 34.7553
a 5191 11583 1.4926
a 5191 4405 6.8933
a 5192 5200 65.9373
a 5192 5201 6.5347
a 5193 5191 1.939
a 5194 5193 8.0388
a 5194 5195 1.782
a 5195 5196 8.1065
a 5195 5197 1.7093
a 5196 5193 1.7633
a 5197 5199 8.5719
a 5197 5198 8.1022
a 5198 5196 1.7114
a 5199 5206 1.8662
a 5199 5207 26.7912
a 5200 5198 1.8655
a 5201 5192 6.9012
a 5201 5192 6.5347
a 5202 5200 2.803
a 5202 5203 6.6362
a 5203 5202 6.6362
a 5203 5201 1.7143
a 5204 5202 1.7662
a 5204 5205 6.3857
a 5205 5203 1.8194
a 5206 5204 1.7863
a 5206 5207 6.1502
a 5207 5205 1.7064
a 5208 5209 19.5811
a 5208 5214 1.625
a 5208 5212 48.1327
a 5209 3312 3.8664
a 5209 5208 19.5811
a 5209 3311 22.739
a 5210 5230 12.7483
a 5211 10207 3.4913
a 5211 11366 3.0031
a 5211 5212 13.5324
a 5212 5208 2.2435
a 5212 5211 13.5324
a 5212 5230 3.7685
a 5213 5233 5.7902
a 5214 4142 2.268
a 5214 5208 1.625
a 5214 10207 13.9565
a 5215 3312 3.6216
a 5215 12377 0.6206
a 5215 4147 23.7888
a 5216 5218 6.9667
a 5217 5218 359.4714
a 5218 10206 3.4186
a 5218 5217 6.8731
a 5218 5216 6.9667
a 5219 5220 9.2028
a 5219 5222 3.3365
a 5219 8629 18.8575
a 5219 10205 12.438
a 5220 5219 2.6762
a 5220 10205 10.8482
a 5220 8629 13.8478
a 5221 10206 6.9602
a 5222 10206 2.2082
a 5222 5219 3.3365
a 5222 5223 12.744
a 5223 5222 12.744
a 5224 5228 5.639
a 5225 5228 2.3962
a 5226 5229 4.4532
a 5227 5229 2.2298
a 5228 5225 6.8785
a 5228 5224 5.639
a 5228 5229 3.4366
a 5229 5227 2.2298
a 5229 5226 4.4532
a 5229 5230 3.7966
a 5229 5228 3.4366
a 5230 5229 3.7966
a 5230 5212 3.7685
a 5230 5210 12.7483
a 5231 7264 42.9921
a 5232 8645 3.8621
a 5232 11235 29.5887
a 5232 11366 122.6957
a 5233 5213 5.7902
a 5233 8919 44.8558
a 5233 5236 4.631
a 5233 4142 26.1533
a 5234 5239 9.5976
a 5234 5238 3.6626
a 5234 5240 12.433
a 5235 5236 7.7897
a 5236 5238 3.8765
a 5236 5233 4.631
a 5236 5235 7.7897
a 5236 8640 9.5868
a 5237 5238 6.071
a 5238 12259 6.4231
a 5238 5237 265.0071
a 5238 5234 3.6626
a 5238 5236 3.8765
a 5239 5234 9.5976
a 5239 5296 3.5222
a 5239 8640 7.8487
a 5240 5234 12.433
a 5241 9054 3.1651
a 5241 9801 12.2098
a 5241 9793 6.9242
a 5242 5243 3.3818
a 5242 8666 3.3084
a 5243 7440 2.1348
a 5244 8994 204.6871
a 5244 205 11.3004
a 5245 29 15.9127
a 5245 204 5.971
a 5245 5246 9.6869
a 5246 5247 5.8824
a 5246 11802 2.4782
a 5246 5245 692.992
a 5247 5246 5.8824
a 5247 204 9.8114
a 5247 13112 48.4402
a 5248 5264 3.024
a 5248 7494 16.0913
a 5248 5258 2.6597
a 5248 13321 149.867
a 5249 5266 14.2358
a 5249 5267 269.2378
a 5249 5264 87.303
a 5250 5251 43.9991
a 5250 5267 5.1372
a 5250 5253 15.5052
a 5251 5275 14.1509
a 5251 5250 13.9687
a 5251 5253 277.5776
a 5252 5254 2.9657
a 5252 5275 11.1456
a 5252 5272 13.6469
a 5253 5270 2.9254
a 5253 5251 6.6564
a 5253 5250 15.5052
a 5254 5270 3.883
a 5254 5252 2.9657
a 5254 5268 8.2627
a 5255 5260 2.7547
a 5255 5256 11.2421
a 5255 5276 710.7737
a 5256 5257 2.8303
a 5256 5271 3.9852
a 5256 5255 11.2421
a 5257 7494 2.8231
a 5257 5256 30.2339
a 5257 5259 499.4966
a 5257 5276 11.4228
a 5258 5276 3.7476
a 5258 5260 12.492
a 5258 5248 2.6597
a 5259 7494 23.2481
a 5259 5481 7.8005
a 5259 5257 23.1358
a 5260 5255 2.7547
a 5260 5265 2.9642
a 5260 5272 3.0154
a 5260 5258 12.492
a 5261 5618 3.4553
a 5261 5728 2.965
a 5261 5562 10.3997
a 5262 5263 10.7316
a 5262 5475 12.857
a 5262 10189 11.0959
a 5263 5262 10.7316
a 5263 5480 4.0054
a 5263 5500 8.0474
a 5263 13284 8.9129
a 5264 5265 14.729
a 5264 5249 2.8685
a 5264 5248 3.024
a 5265 5260 2.9642
a 5265 5266 2.9614
a 5265 5264 14.729
a 5266 5265 2.9614
a 5266 5249 153.37
a 5266 5268 2.6935
a 5267 5250 5.1372
a 5267 5249 3.4934
a 5267 5269 10.0066
a 5268 5269 86.5827
a 5268 5266 2.6935
a 5268 5254 8.2627
a 5269 5268 15.5443
a 5269 5267 10.0066
a 5269 5270 41.3032
a 5270 5253 2.9254
a 5270 5254 3.883
a 5270 5269 11.4617
a 5271 5256 3.9852
a 5271 7493 9.6444
a 5271 5281 6.3619
a 5272 5260 3.0154
a 5272 5273 3.2126
a 5272 7493 8.9964
a 5272 5252 13.6469
a 5273 11651 1.3018
a 5273 5272 3.2126
a 5273 5466 12.371
a 5273 7492 18.4097
a 5274 7492 11.0786
a 5274 7639 1.8972
a 5274 5275 3.4272
a 5275 5274 3.4272
a 5275 5252 11.1456
a 5275 5251 412.9873
a 5276 5258 3.7476
a 5276 5257 11.4228
a 5276 5255 10.9152
a 5277 5485 2.844
a 5277 5278 2.5322
a 5277 5526 11.1802
a 5278 5481 2.2176
a 5278 10477 0.2707
a 5278 5277 2.5322
a 5279 5528 2.6179
a 5279 5481 10.5091
a 5279 12673 2.6772
a 5280 5281 9.1368
a 5280 5451 13.6145
a 5280 5528 3.0204
a 5281 5280 2.857
a 5281 5604 12.1601
a 5281 5271 6.3619
a 5282 5285 2.8685
a 5282 5286 18.581
a 5282 5289 4.4964
a 5283 5284 35.0762
a 5284 5283 3.3962
a 5284 5303 20.7482
a 5284 5285 25.367
a 5285 5282 2.8685
a 5285 5284 589.1524
a 5285 5301 3.3113
a 5286 5282 18.581
a 5287 5289 22.6735
a 5288 12577 0.3298
a 5288 8524 12.3797
a 5288 8527 6.4598
a 5289 5295 4.5691
a 5289 5287 22.6735
a 5289 5282 51.7096
a 5290 5293 3.3336
a 5290 5295 186.8219
a 5290 11417 27.5119
a 5291 5294 8.0597
a 5291 8524 9.8791
a 5291 11622 10.8367
a 5292 11549 2.2932
a 5293 5290 3.3336
a 5293 11777 19.098
a 5293 5300 10.9476
a 5294 5291 85.2111
a 5294 8526 17.1274
a 5294 8538 3.0924
a 5294 11549 3.2753
a 5295 5289 4.5691
a 5295 5290 3.3314
a 5295 9062 20.268
a 5296 5297 6.125
a 5296 5239 3.5222
a 5296 4473 6.6391
a 5297 5296 6.125
a 5298 5299 32.729
a 5298 9061 5.1984
a 5298 5301 3.8196
a 5299 10333 2.9498
a 5299 10334 0.3175
a 5299 5298 32.729
a 5300 5293 10.9476
a 5300 13199 15.385
a 5300 10334 2.9844
a 5301 5285 3.3113
a 5301 5303 7.9978
a 5301 5298 11.2458
a 5302 3360 15.4822
a 5302 3359 7.0402
a 5302 5303 3.3386
a 5303 5302 3.3386
a 5303 5301 7.9978
a 5303 5284 20.7482
a 5304 5368 1.7734
a 5304 5313 5.6059
a 5304 13215 2.1161
a 5305 5312 5.2769
a 5306 5363 5.7751
a 5306 5360 10.7791
a 5306 5310 1.962
a 5306 5356 12.5114
a 5307 5336 10.111
a 5307 5330 5.292
a 5307 5340 5.8673
a 5308 9962 2.3141
a 5308 9332 1.1938
a 5308 5372 8.2735
a 5309 10646 0.6401
a 5309 5376 11.7151
a 5309 5332 9.4579
a 5310 5370 10.7741
a 5310 5368 5.6966
a 5310 5313 1.7705
a 5310 5306 1.962
a 5311 5317 20.6277
a 5311 5354 8.4967
a 5312 10630 0.9612
a 5312 5333 6.8393
a 5312 5305 5.2769
a 5313 5316 1.8914
a 5313 5310 7.5
a 5313 5304 14.3318
a 5313 5375 10.7683
a 5314 5322 1.5062
a 5315 8510 2.4516
a 5316 5313 1.8914
a 5316 13215 5.22
a 5316 3797 10.7626
a 5316 8658 5.8637
a 5317 5319 8.5349
a 5317 12132 6.899
a 5318 3608 0.8114
a 5318 3600 10.8518
a 5318 5333 151.8808
a 5319 5354 4.5245
a 5319 5322 1.4436
a 5319 5317 8.5349
a 5320 5324 3.047
a 5320 5063 10.3975
a 5320 5064 3.4495
a 5321 3600 5.2848
a 5321 11241 195.323
a 5321 5331 11.2385
a 5322 5319 1.4436
a 5322 5314 20.3878
a 5322 12132 6.8659
a 5323 7343 19.5934
a 5323 3715 4.7153
a 5323 7054 6.3374
a 5324 5320 3.047
a 5324 5020 4.4165
a 5324 5062 11.4689
a 5325 5330 3.438
a 5326 5332 8.4809
a 5326 2763 14.2099
a 5327 11241 204.536
a 5327 5335 4.6289
a 5327 9332 8.1907
a 5328 8861 3.3804
a 5328 5338 2.3918
a 5328 8863 6.7406
a 5329 12570 0.6178
a 5329 5339 1.6661
a 5329 1659 2.1787
a 5330 5307 5.292
a 5330 5325 3.438
a 5330 5371 2.7698
a 5331 5333 0.823
a 5331 9896 4.8463
a 5331 5321 11.2385
a 5332 6885 5.6542
a 5332 5326 8.4809
a 5332 5309 9.4579
a 5333 5331 0.823
a 5333 5318 6.8746
a 5333 5312 6.8393
a 5334 3602 141.0635
a 5334 11419 7.3951
a 5334 8775 10.458
a 5335 8772 1.1614
a 5335 3546 5.778
a 5335 5327 4.6289
a 5336 5359 3.6194
a 5336 5307 10.111
a 5337 3606 11.2789
a 5337 8775 8.4449
a 5337 2762 15.8998
a 5338 8656 12.0254
a 5338 5328 2.3918
a 5338 5349 4.8478
a 5339 5367 2.322
a 5339 5329 1.6661
a 5340 5345 7.9466
a 5340 5374 3.8995
a 5341 12173 2.1427
a 5341 10665 10.651
a 5341 9043 11.3328
a 5342 6906 22.4093
a 5343 11667 6.3994
a 5343 10629 117.4882
a 5343 10630 1333.1335
a 5344 5347 4.7146
a 5345 5340 62.0326
a 5345 5336 16.4598
a 5346 7236 1.9937
a 5347 5344 4.7146
a 5347 10645 3.2479
a 5347 5376 5.315
a 5348 9896 5.0825
a 5348 8621 7.9344
a 5348 9962 6.9725
a 5349 5338 4.8478
a 5350 3601 11.6107
a 5350 10644 7.0488
a 5351 5345 10.031
a 5351 10469 8.2526
a 5352 5363 44.2557
a 5353 3609 3.0874
a 5353 3612 4.4302
a 5353 11758 5.1156
a 5354 5319 52.1069
a 5354 5311 8.4967
a 5354 12863 1.7006
a 5355 5369 2.9196
a 5355 5307 3.4697
a 5356 5360 1.7906
a 5356 5306 12.5114
a 5356 3852 2.5373
a 5357 5361 6.0653
a 5357 5056 10.6524
a 5357 5065 5.5692
a 5357 10642 9.684
a 5358 3609 0.653
a 5358 10631 10.602
a 5358 12204 6.691
a 5359 5365 3.7699
a 5359 5362 22.4626
a 5360 5306 10.7791
a 5360 5356 1.7906
a 5360 5370 1.962
a 5361 5357 149.9236
a 5362 5339 3.4661
a 5362 5365 21.1061
a 5363 5306 267.0514
a 5363 5352 1.7093
a 5363 5368 1.9634
a 5364 5079 4.3337
a 5365 5359 269.2832
a 5365 5369 3.7714
a 5365 5362 21.1061
a 5366 5371 2.358
a 5367 5311 4.7311
a 5367 5369 21.9218
a 5368 5310 5.6966
a 5368 5363 1.9634
a 5368 5304 1.7734
a 5369 5365 13.0822
a 5369 5355 33.9867
a 5369 5367 21.9218
a 5370 5310 10.7741
a 5370 5360 1.962
a 5370 5375 20.7067
a 5371 5366 18.613
a 5371 8510 10.1902
a 5371 5330 12.0502
a 5372 8772 6.2395
a 5372 5308 8.2735
a 5372 8781 23.3676
a 5373 4791 10.1765
a 5373 13535 0.9914
a 5374 8510 4.5994
a 5374 10464 8.9006
a 5374 5351 366.0274
a 5375 5313 10.7683
a 5375 3797 7.1152
a 5375 5370 1.7705
a 5376 8775 1.589
a 5376 5309 114.2252
a 5376 5347 5.315
a 5377 5390 485.709
a 5377 5393 12.0946
a 5377 7710 3.2789
a 5378 7710 245.3291
a 5378 7709 3.4805
a 5378 5379 655.3221
a 5378 5388 10.8252
a 5379 5380 3.4265
a 5379 5381 3.2335
a 5379 5378 26.491
a 5380 5379 8.8722
a 5380 7709 26.5925
a 5380 5381 10.1102
a 5381 5379 3.2335
a 5381 5389 3.3437
a 5381 7710 26.4924
a 5381 5380 10.1102
a 5382 7710 7.2
a 5383 10249 1.1599
a 5384 5386 3.3595
a 5384 5387 685.4077
a 5384 10249 11.965
a 5384 7709 3.1068
a 5385 10250 1.7446
a 5386 5384 3.3595
a 5386 9483 8.0726
a 5386 10250 11.9542
a 5387 9483 3.0053
a 5387 5384 7.6651
a 5387 5388 3.4474
a 5388 7709 7.6781
a 5388 5387 3.4474
a 5388 5378 76.2576
a 5389 5381 3.3437
a 5389 5393 14.436
a 5389 7193 17.6126
a 5390 5377 5.6203
a 5391 5392 59.5651
a 5392 5391 5.9285
a 5392 5162 2.7072
a 5392 5164 9.4846
a 5392 5161 2.921
a 5393 7193 3.2479
a 5393 5377 12.0946
a 5393 5389 14.436
a 5394 5395 14.6023
a 5394 7359 3.3336
a 5394 539 13.9169
a 5395 5394 153.7484
a 5396 9717 653.581
a 5396 5397 374.4902
a 5396 11272 47.6914
a 5397 7105 46.8563
a 5397 5396 7.2367
a 5397 8145 2.4502
a 5398 5664 11.5956
a 5398 12266 18.4882
a 5398 7008 2.6734
a 5399 5400 6.4166
a 5399 5400 11.8325
a 5399 8253 4.6987
a 5400 10474 2.6093
a 5400 5402 3.0067
a 5400 5399 6.4166
a 5400 5399 11.8325
a 5401 5399 3.726
a 5401 5402 93.5905
a 5402 5400 95.2485
a 5402 5186 3.4682
a 5402 5401 6.3929
a 5403 5404 6.6413
a 5404 10474 4.8967
a 5404 5638 2.8289
a 5404 5405 7.2871
a 5404 5403 74.8965
a 5405 5404 7.2871
a 5405 10474 12.3545
a 5405 5638 134.6503
a 5406 8253 17.0518
a 5406 7802 18.8698
a 5407 407 4.019
a 5407 5423 6.521
a 5407 12267 10.399
a 5408 5407 17.5723
a 5408 5406 6.2784
a 5409 7007 6.336
a 5409 7007 12.3113
a 5409 7906 3.7505
a 5410 12886 31.5035
a 5410 5490 8.5824
a 5410 5421 3.6446
a 5411 12885 8.2924
a 5411 5416 5.2618
a 5411 5419 13.6598
a 5412 5418 11.0146
a 5412 5413 8.2987
a 5412 9785 5.8032
a 5413 5417 7.1201
a 5413 7906 116.9024
a 5413 5412 8.2987
a 5414 9812 1.998
a 5414 5417 9.6739
a 5415 5422 4.1098
a 5415 10358 10.0565
a 5415 409 6.989
a 5416 5411 5.2618
a 5416 5418 11.6309
a 5416 5414 4.9817
a 5417 5418 5.0796
a 5417 5413 7.1201
a 5418 5412 11.0146
a 5418 5419 5.0746
a 5418 5417 5.0796
a 5418 5416 11.6309
a 5419 9813 2.1082
a 5419 5418 5.0746
a 5419 9785 8.0222
a 5419 5411 13.6598
a 5420 5421 5.9443
a 5421 5420 5.9443
a 5421 5410 3.6446
a 5421 409 5.7542
a 5422 5415 4.1098
a 5423 5427 14.9756
a 5423 5407 6.521
a 5424 10470 11.0268
a 5424 406 18.301
a 5425 11222 5.6772
a 5425 7567 22.0464
a 5425 406 32.8633
a 5426 10470 23.1833
a 5427 10372 2.2378
a 5427 10372 13.0133
a 5428 408 33.7054
a 5428 10377 28.0159
a 5428 11282 8.4744
a 5428 11592 6.629
a 5429 5740 52.7364
a 5429 5740 14.8543
a 5429 7500 16.0538
a 5430 5611 2.7403
a 5430 5627 5.4763
a 5430 10370 2.8692
a 5431 5732 16.9171
a 5431 5531 11.7835
a 5431 5613 4.4964
a 5432 5614 8.6825
a 5432 5479 3.168
a 5432 5631 3.8088
a 5433 5628 18.1838
a 5433 5668 3.4769
a 5433 5608 16.6543
a 5434 5703 1.3694
a 5434 5500 17.3837
a 5434 5617 3.1097
a 5435 5694 4.7686
a 5435 5676 1.1333
a 5435 5468 6.2143
a 5436 5600 18.3802
a 5436 5653 3.155
a 5436 5595 2.4574
a 5437 5593 2.659
a 5438 5583 1.8266
a 5438 5512 3.8282
a 5438 5687 164.5396
a 5439 5726 5.5793
a 5440 5572 2.8447
a 5440 5486 10.1952
a 5440 10190 0.9655
a 5441 11135 3.2033
a 5441 5448 12.6079
a 5442 9728 3.4704
a 5442 10194 0.9036
a 5442 5601 2.6374
a 5443 5628 71.9598
a 5443 5787 7.2379
a 5443 5608 3.4308
a 5444 5671 3.7577
a 5444 6248 3.8239
a 5444 5514 12.5258
a 5445 5734 37.0354
a 5445 5734 7.0114
a 5445 5640 6.1042
a 5446 5557 6.1301
a 5446 5704 1.7734
a 5446 5611 15.9516
a 5447 5567 3.2011
a 5447 5613 4.3884
a 5447 5741 9.846
a 5448 5537 2.6352
a 5448 12646 3.5957
a 5449 5739 6.5189
a 5449 5567 94.1901
a 5449 5708 7.9898
a 5450 5727 8.4067
a 5450 5615 3.1493
a 5450 6247 4.7563
a 5451 5528 10.8979
a 5451 5280 13.6145
a 5451 5721 20.8613
a 5452 5626 7.5931
a 5453 7492 4.3387
a 5453 5558 5.3885
a 5453 11215 0.4651
a 5453 5728 12.9708
a 5454 5665 3.6029
a 5454 5562 4.1587
a 5454 6887 2.5999
a 5455 5586 51.1228
a 5455 5508 3.6216
a 5455 5553 254.3463
a 5456 5670 3.5402
a 5456 11466 10.4767
a 5456 5724 12.227
a 5456 5615 3.7087
a 5457 5584 2.5092
a 5457 5500 3.1104
a 5457 5634 3.9377
a 5457 9727 16.2036
a 5458 5682 4.0219
a 5458 13284 5.6002
a 5458 5602 22.7779
a 5459 5636 4.163
a 5459 5683 4.5176
a 5459 5671 2.1737
a 5460 5651 2.5798
a 5461 5745 2.3184
a 5461 5723 2.6086
a 5461 5550 2.5913
a 5461 5660 2.5193
a 5462 5621 2.6316
a 5462 5530 2.0714
a 5462 5726 13.7858
a 5463 5606 5.0738
a 5463 5625 14.0313
a 5463 5475 3.6662
a 5463 9728 11.821
a 5464 5658 4.775
a 5464 5679 13.482
a 5464 12406 5.0526
a 5465 6887 3.9442
a 5466 5568 3.0089
a 5466 7493 10.5128
a 5466 5273 12.371
a 5467 5825 2.5574
a 5467 10426 41.5894
a 5467 10412 18.481
a 5467 5669 3.4243
a 5468 5644 3.5626
a 5468 5552 5.2704
a 5468 5435 41.1718
a 5469 5663 3.816
a 5469 5610 3.3084
a 5469 5646 11.8332
a 5470 5689 6.385
a 5470 5518 2.6532
a 5470 5525 16.4218
a 5471 13586 0.2484
a 5472 5558 2.1722
a 5472 5676 3.2321
a 5472 5643 6.2021
a 5473 5597 18.6818
a 5473 5398 6.0271
a 5474 5681 3.0096
a 5474 5577 13.6829
a 5474 10414 8.2274
a 5475 11634 11.2471
a 5475 5262 12.857
a 5475 5463 16.4878
a 5476 5536 5.9537
a 5476 5713 3.0816
a 5477 5615 6.1034
a 5477 5680 9.8446
a 5477 6886 21.5662
a 5478 5642 2.988
a 5478 5653 3.1644
a 5478 5711 14.927
a 5479 5698 3.2436
a 5479 5494 3.2328
a 5479 5432 3.168
a 5480 5500 3.2674
a 5480 5555 17.3902
a 5480 5580 6.5534
a 5480 5263 10.4012
a 5481 5278 2.2176
a 5481 5259 7.8005
a 5481 5279 10.5091
a 5482 6197 11.8772
a 5482 6194 78.0039
a 5482 5569 7.7638
a 5483 5523 2.5826
a 5483 5654 2.7346
a 5483 5549 7.9402
a 5484 5636 3.6554
a 5484 5709 11.732
a 5484 5529 10.3277
a 5485 5277 2.844
a 5485 10478 5.369
a 5485 5526 12.8088
a 5486 5440 10.1952
a 5486 5718 3.0226
a 5486 8583 3.5266
a 5487 5695 3.7073
a 5488 10416 7.5334
a 5488 5502 8.9654
a 5488 5690 7.2893
a 5489 5637 3.2594
a 5489 5600 13.7592
a 5489 5653 18.6336
a 5490 10512 4.5994
a 5490 410 6.5873
a 5490 5410 8.5824
a 5491 7501 3.3458
a 5491 5532 12.7829
a 5491 5626 9.7106
a 5492 5544 15.0149
a 5492 5732 25.4844
a 5492 12417 2.7029
a 5492 5708 4.4719
a 5493 5678 1.3442
a 5494 5642 42.7113
a 5494 5479 29.222
a 5494 5711 2.9873
a 5495 5688 135.9541
a 5495 409 6.2302
a 5496 5610 4.0082
a 5496 5663 3.3689
a 5496 7468 8.3815
a 5497 5664 3.4222
a 5497 5498 3.4488
a 5497 5510 5.2855
a 5498 5661 6.2827
a 5498 5497 3.4488
a 5498 5630 3.3847
a 5499 5733 2.9153
a 5499 9727 3.1853
a 5499 5574 6.4066
a 5500 5457 3.1104
a 5500 5480 3.2674
a 5500 5434 17.3837
a 5500 5263 8.0474
a 5501 5535 11.1528
a 5501 5535 15.4786
a 5501 5507 3.1997
a 5502 10188 3.5114
a 5502 5488 8.9654
a 5502 8588 8.5536
a 5503 5592 2.2262
a 5503 5648 5.328
a 5503 10169 5.1329
a 5504 10462 15.943
a 5504 5664 7.7645
a 5504 5566 7.3159
a 5505 5642 3.3314
a 5505 5631 7.951
a 5505 5538 3.2753
a 5506 5748 3.9744
a 5506 8584 8.0914
a 5506 5652 3.2904
a 5507 5501 86.6956
a 5507 10376 3.8815
a 5507 10512 264.0007
a 5508 5455 3.6216
a 5508 5656 3.7908
a 5508 5647 8.0892
a 5509 5701 3.69
a 5509 5658 10.4177
a 5509 11784 4.9536
a 5510 5497 5.2855
a 5511 5708 8.0114
a 5512 5748 4.5029
a 5512 5438 3.8282
a 5512 5536 12.7447
a 5513 5683 2.3688
a 5513 5587 4.5706
a 5514 5649 10.2204
a 5514 5636 13.4474
a 5514 5735 3.4279
a 5514 5444 12.5258
a 5515 5685 7.771
a 5515 5749 18.9994
a 5515 5733 1.8518
a 5515 5705 3.0996
a 5516 5752 13.2746
a 5516 5752 8.167
a 5516 5728 5.4065
a 5516 5710 101.8617
a 5517 5582 4.0586
a 5517 5701 16.5434
a 5517 2439 9.2254
a 5518 5470 2.6532
a 5519 5567 5.3762
a 5520 5597 91.5059
a 5520 5688 4.4755
a 5520 5655 4.6526
a 5521 3310 23.7521
a 5522 12890 0.995
a 5522 5744 4.5331
a 5522 5589 12.3365
a 5522 5714 4.4611
a 5523 5629 3.235
a 5523 5483 2.5826
a 5523 5545 77.2212
a 5524 5537 152.6858
a 5524 5543 741.8464
a 5524 5543 13.0637
a 5525 5470 356.0614
a 5525 11872 1.759
a 5525 8746 3.4574
a 5526 5645 4.6037
a 5526 5277 11.1802
a 5526 5485 12.8088
a 5527 5697 3.1838
a 5527 5672 4.5101
a 5527 5725 102.7614
a 5527 13260 11.4689
a 5528 5279 2.6179
a 5528 5451 10.8979
a 5528 5280 3.0204
a 5529 5683 10.5703
a 5529 5484 10.3277
a 5529 5691 5.8306
a 5530 5462 0.6156
a 5530 5674 3.1903
a 5530 5698 8.0388
a 5531 5431 11.7835
a 5531 5707 4.9399
a 5531 5627 4.279
a 5531 5561 15.8803
a 5532 5626 3.3322
a 5532 5559 3.2717
a 5532 5641 7.5319
a 5532 5491 12.7829
a 5533 5702 7.9821
a 5534 5681 2.9678
a 5534 5700 2.9138
a 5535 5655 2.6244
a 5535 5501 11.1528
a 5535 5501 204.1885
a 5536 5603 4.0896
a 5537 5524 5.1595
a 5537 10414 2.5351
a 5537 5448 2.6352
a 5537 5753 107.6218
a 5538 5705 8.8229
a 5538 10170 0.6077
a 5538 5505 237.4216
a 5539 5686 12.5777
a 5539 5743 5.5346
a 5539 5607 16.0214
a 5540 12346 0.2102
a 5540 5595 21.6184
a 5540 5621 3.1802
a 5541 13141 0.4795
a 5541 406 25.8768
a 5542 5742 3.0614
a 5542 5714 4.5907
a 5542 5692 19.5365
a 5543 5524 13.0637
a 5543 5524 11.0606
a 5543 5712 3.425
a 5544 5492 15.0149
a 5545 5606 3.245
a 5545 5523 6.7738
a 5545 5695 8.2512
a 5545 5549 2.97
a 5546 5866 2.4646
a 5546 5693 1.7986
a 5546 5570 14.3107
a 5547 10199 2.7302
a 5547 5706 58.2198
a 5547 5699 21.5762
a 5547 5699 34.3396
a 5548 5603 2.2658
a 5549 5483 7.9402
a 5549 5545 2.97
a 5549 5562 3.6893
a 5550 5461 8.5302
a 5550 7302 2.8642
a 5550 5592 4.5698
a 5551 5698 18.5854
a 5551 7536 3.312
a 5551 5747 3.2508
a 5552 5644 1.7431
a 5552 6887 1.0584
a 5552 5468 5.2704
a 5553 5647 3.5136
a 5553 5455 9.1253
a 5553 5586 13.8586
a 5554 5670 120.2328
a 5554 5702 3.3422
a 5554 5724 42.5621
a 5555 5703 2.0052
a 5555 5746 14.5977
a 5555 5480 17.3902
a 5556 5697 9.257
a 5557 5627 4.6159
a 5557 5446 6.1301
a 5557 5611 6.8105
a 5558 5472 2.1722
a 5558 5453 5.3885
a 5558 5694 1.7561
a 5558 5618 5.3986
a 5559 5532 3.2717
a 5559 9461 4.4162
a 5559 5696 7.6817
a 5559 8793 6.5729
a 5560 5733 7.236
a 5560 5574 3.1162
a 5560 5685 1.926
a 5561 5704 1.3622
a 5561 5689 79.6604
a 5561 5531 15.8803
a 5562 5454 4.1587
a 5562 5549 3.6893
a 5562 5261 10.3997
a 5563 5732 4.3474
a 5563 5613 209.7143
a 5563 5741 6.7118
a 5564 5737 6.0271
a 5564 5700 2.7007
a 5565 5722 2.2817
a 5565 5573 3.8902
a 5565 10430 5.5634
a 5566 5504 7.3159
a 5566 2439 10.1333
a 5566 5716 5.3258
a 5567 5447 13.4988
a 5567 5449 4.1681
a 5567 5519 5.3762
a 5568 5604 6.6326
a 5568 5604 10.0548
a 5568 5466 3.0089
a 5569 5482 7.7638
a 5569 6886 3.9614
a 5569 5513 17.8862
a 5570 11269 189.9257
a 5570 5867 2.9743
a 5570 10454 6.7277
a 5570 5546 14.3107
a 5571 5720 30.6973
a 5571 5589 5.0688
a 5571 5640 10.2888
a 5572 5440 2.8447
a 5572 5755 8.0442
a 5572 5718 11.2594
a 5573 5565 3.8902
a 5573 5743 8.6177
a 5573 5712 6.2813
a 5574 5560 3.1162
a 5574 10176 6.3806
a 5574 5499 71.4424
a 5575 7536 1.5322
a 5575 12185 6.4581
a 5576 5724 3.0125
a 5577 5700 121.6406
a 5577 5737 3.0053
a 5577 5474 13.6829
a 5578 5725 3.1961
a 5579 5719 729.3414
a 5579 5787 1.5984
a 5579 5747 3.3314
a 5580 13284 0.2779
a 5580 10174 10.1045
a 5580 5480 6.5534
a 5581 5704 18.3845
a 5581 6325 2.3386
a 5581 6308 4.6613
a 5582 5701 11.7835
a 5582 5517 4.0586
a 5582 5658 4.2624
a 5582 13583 4.1839
a 5583 5438 1.8266
a 5584 5733 19.1066
a 5584 5457 2.5092
a 5584 5749 1.8504
a 5585 5724 3.8311
a 5585 5677 7.1345
a 5585 10362 11.1305
a 5586 5730 139.6752
a 5586 5455 3.6763
a 5586 5553 40.6081
a 5587 5569 58.967
a 5587 11465 3.4682
a 5588 5756 0.9122
a 5589 13580 61.8387
a 5589 5522 43.5511
a 5589 5571 5.0688
a 5590 5747 581.1341
a 5590 5674 7.637
a 5590 5698 3.1752
a 5590 11480 1.5732
a 5591 6250 1.6294
a 5591 5598 3.6821
a 5591 10361 637.5532
a 5592 5503 2.2262
a 5592 5745 5.1559
a 5592 5550 4.5698
a 5593 5564 8.1641
a 5593 5437 2.659
a 5594 10478 1.0685
a 5595 5436 2.4574
a 5595 10166 14.1782
a 5595 5540 6.2208
a 5596 9461 12.1405
a 5597 5520 26.6558
a 5597 12417 7.2468
a 5597 5473 18.6818
a 5598 5649 215.6034
a 5598 5727 7.6651
a 5598 5591 3.6821
a 5599 10411 50.8672
a 5599 10416 9.3521
a 5599 5619 3.4286
a 5600 5436 18.3802
a 5600 5489 3.2544
a 5600 5617 3.515
a 5601 5442 2.6374
a 5601 5606 9.2398
a 5601 5695 3.8318
a 5602 5458 22.7779
a 5602 5751 3.8966
a 5602 10172 22.2077
a 5603 5548 2.2658
a 5603 5748 15.4742
a 5603 5667 6.3432
a 5604 5568 6.6326
a 5604 5568 10.0548
a 5604 5281 12.1601
a 5604 5751 3.4682
a 5605 11201 10.5048
a 5605 10480 8.7408
a 5605 12406 3.0564
a 5606 5463 5.0738
a 5606 5545 3.245
a 5606 5601 243.5457
a 5606 5629 5.2654
a 5607 5539 16.0214
a 5607 5686 6.7183
a 5607 5753 6.0343
a 5608 5433 16.6543
a 5608 5443 3.4308
a 5608 5783 9.7258
a 5609 5630 267.5164
a 5610 5496 41.864
a 5610 7468 91.7972
a 5610 5469 3.3084
a 5611 5430 2.7403
a 5611 5446 15.9516
a 5611 5557 6.8105
a 5612 5737 142.0078
a 5613 5447 4.3884
a 5613 5707 14.7499
a 5613 5563 13.0853
a 5613 5431 4.4964
a 5614 5631 9.5278
a 5614 13182 5.6268
a 5615 5477 6.1034
a 5615 5456 3.7087
a 5615 5450 3.1493
a 5616 8218 6.1374
a 5616 5622 6.0365
a 5616 9478 7.3109
a 5617 5600 3.515
a 5617 5434 3.1097
a 5617 10166 4.037
a 5618 5643 3.2702
a 5618 5261 3.4553
a 5618 5558 5.3986
a 5619 5656 1.3255
a 5619 5599 26.3415
a 5619 5730 15.1632
a 5620 5675 159.5212
a 5621 5711 2.1737
a 5621 5462 2.6316
a 5621 5540 3.1802
a 5622 5635 6.9451
a 5622 5616 6.0365
a 5622 5679 3.2011
a 5623 11635 1.8367
a 5623 5665 5.7154
a 5623 5676 1.5797
a 5624 10480 5.6232
a 5625 5755 2.9484
a 5625 5629 5.1847
a 5625 5463 2.8267
a 5626 5633 69.0211
a 5626 5532 3.3322
a 5626 5452 7.5931
a 5626 5491 9.7106
a 5627 5557 4.6159
a 5627 5430 5.4763
a 5627 5531 41.5308
a 5628 5443 16.3044
a 5628 5719 3.2335
a 5628 5433 1.7273
a 5629 5625 418.435
a 5629 5523 3.235
a 5629 5606 398.1549
a 5630 5498 72.6143
a 5630 11992 14.4144
a 5630 5609 5.8075
a 5631 5505 7.951
a 5631 5432 3.8088
a 5631 5614 9.5278
a 5632 6247 3.7937
a 5632 5671 12.9578
a 5632 5680 19.2153
a 5633 8218 3.3869
a 5633 5626 8.6178
a 5633 11851 8.3866
a 5633 7501 9.7236
a 5634 5457 3.9377
a 5635 5622 6.9451
a 5635 9478 12.1658
a 5635 5651 3.4826
a 5636 5459 4.163
a 5636 5484 3.6554
a 5636 5514 13.4474
a 5637 5705 18.8086
a 5637 5489 3.2594
a 5637 5749 3.101
a 5638 5186 12.0269
a 5638 5404 2.8289
a 5638 5734 37.9673
a 5638 5405 9.2405
a 5639 5660 8.0611
a 5639 10451 1.5379
a 5639 12185 12.9895
a 5640 5720 21.3861
a 5640 5445 6.1042
a 5640 5571 10.2888
a 5640 5692 4.5929
a 5641 5532 7.5319
a 5642 5494 182.1506
a 5642 5505 3.3314
a 5642 5478 2.988
a 5643 5618 3.2702
a 5643 5665 3.0506
a 5643 5472 6.2021
a 5644 5468 3.5626
a 5644 11635 10.7069
a 5644 5552 1.7431
a 5645 5526 4.6037
a 5646 5469 11.8332
a 5646 7469 14.4022
a 5646 5690 8.1439
a 5647 5553 3.5136
a 5647 5508 331.2747
a 5647 5656 9.4212
a 5648 5745 2.2622
a 5648 5675 2.2572
a 5648 5503 5.328
a 5648 12193 2.9218
a 5649 5598 4.1724
a 5649 9818 8.3707
a 5649 5514 10.2204
a 5650 5751 1.3774
a 5650 8583 2.7151
a 5650 10177 5.7722
a 5651 5729 445.8824
a 5651 5635 3.4826
a 5651 5460 2.5798
a 5652 4568 4.0363
a 5652 10181 0.9713
a 5652 5743 3.1781
a 5652 5506 3.2904
a 5653 5478 3.1644
a 5653 5705 9.5092
a 5653 5436 3.155
a 5653 5489 18.6336
a 5654 5755 10.2031
a 5654 5483 2.7346
a 5654 5718 3.3458
a 5655 13120 0.9547
a 5655 5535 2.6244
a 5655 11898 3.9449
a 5655 5520 4.6526
a 5656 5508 15.9459
a 5656 5619 1.3255
a 5656 5647 116.8257
a 5657 10191 3.9557
a 5657 9728 3.8052
a 5657 5687 7.2706
a 5658 5582 110.2457
a 5658 5464 4.775
a 5658 5509 10.4177
a 5659 5534 82.659
a 5659 5593 3.2105
a 5660 10283 16.116
a 5660 5723 1.9951
a 5660 5461 2.5193
a 5660 5639 30.2212
a 5661 5498 6.2827
a 5662 8182 46.777
a 5663 5469 3.816
a 5663 12024 4.4424
a 5663 5496 3.3689
a 5664 5497 3.4222
a 5664 5398 11.5956
a 5664 5504 7.7645
a 5665 5643 3.0506
a 5665 5454 3.6029
a 5665 5623 5.7154
a 5666 11871 3.0895
a 5666 5673 3.8988
a 5666 9107 14.035
a 5667 9848 3.0132
a 5667 5441 11.0621
a 5667 5686 3.1349
a 5667 5603 6.3432
a 5668 5740 6.5369
a 5668 7500 130.7429
a 5668 5433 3.4769
a 5669 5467 3.4243
a 5669 5659 1.6848
a 5670 5456 3.5402
a 5670 5554 27.4085
a 5670 13151 1.9166
a 5671 5459 2.1737
a 5671 5444 14.4561
a 5671 5632 12.9578
a 5672 5527 4.5101
a 5673 5866 3.7663
a 5673 5715 6.8249
a 5673 5666 3.8988
a 5674 5590 7.637
a 5674 5530 3.1903
a 5674 13586 2.173
a 5675 5648 2.2572
a 5675 5620 3.0348
a 5675 10169 2.4084
a 5675 10167 1.4278
a 5676 5472 3.2321
a 5676 5435 1.1333
a 5676 5623 1.5797
a 5677 5702 5.4108
a 5677 6251 1.7352
a 5677 5585 89.5937
a 5678 10283 115.6954
a 5678 10283 12.6101
a 5678 5493 1.3442
a 5679 13584 9.7366
a 5679 5464 13.482
a 5679 5622 3.2011
a 5680 5477 88.0156
a 5680 6886 6.012
a 5680 5632 22.1486
a 5681 5474 3.0096
a 5681 5669 11.4221
a 5682 5458 4.0219
a 5682 11359 13.0981
a 5682 10171 81.5336
a 5683 5459 1.5682
a 5683 5513 2.3688
a 5683 5529 10.5703
a 5684 11135 1.381
a 5685 5515 7.771
a 5685 5560 1.926
a 5685 10170 2.6719
a 5686 5539 12.5777
a 5686 5607 6.7183
a 5686 5667 3.1349
a 5687 5476 3.2825
a 5687 5438 212.5806
a 5687 5657 374.6122
a 5688 5473 100.2242
a 5688 5520 4.4755
a 5689 5470 6.385
a 5689 8746 5.9119
a 5689 5561 5.4979
a 5690 11316 1.9397
a 5690 5488 7.2893
a 5690 5646 8.1439
a 5691 5529 5.8306
a 5692 5714 14.94
a 5692 5640 4.5929
a 5692 5542 19.5365
a 5693 5546 1.7986
a 5694 5435 4.7686
a 5694 5558 1.7561
a 5694 13323 4.4165
a 5695 5487 11.0569
a 5695 5545 23.7038
a 5695 5601 3.8318
a 5696 5559 7.6817
a 5697 8490 270.9596
a 5697 5527 3.1838
a 5697 5556 9.257
a 5697 8491 9.8885
a 5698 5479 3.2436
a 5698 5590 3.1752
a 5698 5551 18.5854
a 5698 5530 47.5005
a 5699 10200 1.8202
a 5699 5547 8.9158
a 5699 5547 21.5762
a 5700 5534 2.9138
a 5700 5577 5.8651
a 5701 5509 91.3907
a 5701 5582 11.7835
a 5701 5517 16.5434
a 5702 5533 3.083
a 5702 5677 5.4108
a 5702 5554 3.3422
a 5703 5434 1.3694
a 5703 5555 2.0052
a 5703 5736 7.1604
a 5704 5561 1.3622
a 5704 10371 6.3043
a 5704 5581 18.3845
a 5704 5446 1.7734
a 5705 5637 18.8086
a 5705 5538 102.3278
a 5705 5515 3.0996
a 5705 5653 3.222
a 5706 5547 39.2945
a 5706 7489 10.224
a 5706 10203 4.8564
a 5706 10198 14.3453
a 5707 13147 1.3838
a 5707 13149 0.6091
a 5707 5613 924.2228
a 5707 5531 4.9399
a 5708 5511 8.0114
a 5708 5449 7.9898
a 5708 5741 9.2023
a 5708 5492 4.4719
a 5709 5484 3.4142
a 5709 13140 1.7741
a 5709 5735 7.902
a 5710 5752 4.6757
a 5710 5516 13.6462
a 5710 8583 4.6051
a 5711 5494 2.9873
a 5711 5621 2.1737
a 5711 5478 14.927
a 5712 5543 3.425
a 5712 5573 6.2813
a 5712 5753 6.3475
a 5713 5476 78.7861
a 5714 5692 14.94
a 5714 5522 34.3697
a 5714 5542 4.5907
a 5715 12175 11.8649
a 5715 5673 6.8249
a 5715 11188 2.1514
a 5716 10460 6.6787
a 5716 5566 266.788
a 5716 12889 2.3134
a 5717 5812 180.9327
a 5717 5750 1213.7298
a 5717 4237 23.2387
a 5718 5572 11.2594
a 5718 5654 3.3458
a 5718 5486 3.0226
a 5719 11480 1.6459
a 5719 5628 156.3911
a 5719 5579 17.0381
a 5720 5744 44.6865
a 5720 5640 6.0055
a 5720 5571 7.8106
a 5721 10174 6.6521
a 5721 5746 3.3106
a 5721 5451 20.8613
a 5722 5565 130.8157
a 5723 5660 1.9951
a 5723 5461 2.6086
a 5723 11133 3.4366
a 5724 5585 3.8311
a 5724 5554 6.6146
a 5724 5456 12.227
a 5724 5576 3.0125
a 5725 5756 85.1664
a 5725 5578 3.1961
a 5725 5527 3.3055
a 5725 10480 14.5116
a 5726 5439 5.5793
a 5726 5462 13.7858
a 5726 10166 19.9051
a 5727 5450 8.4067
a 5727 5598 7.6651
a 5727 6248 8.6227
a 5728 5261 2.965
a 5728 11651 3.5057
a 5728 5516 5.4065
a 5728 5453 12.9708
a 5729 5651 14.4526
a 5729 10516 6.917
a 5729 5731 1.4299
a 5730 5586 3.8333
a 5730 5738 2.1708
a 5730 5619 151.4557
a 5731 7501 0.4543
a 5731 9478 85.6398
a 5731 5729 1.4299
a 5732 5563 359.7278
a 5732 5492 25.4844
a 5732 5431 72.2088
a 5732 5786 9.3895
a 5733 5584 19.1066
a 5733 5560 7.236
a 5733 5499 27.9023
a 5733 5515 1.8518
a 5734 5445 37.0354
a 5734 5445 7.0114
a 5734 5638 166.718
a 5735 5514 27.6909
a 5735 11088 103.6647
a 5735 5709 7.902
a 5736 5703 7.1604
a 5736 13283 1.3968
a 5736 11773 51.3098
a 5737 5564 6.0271
a 5737 5612 49.5881
a 5737 5577 47.7981
a 5738 5730 2.1708
a 5739 5449 6.5189
a 5740 5429 7.9027
a 5740 5429 14.8543
a 5740 5668 6.5369
a 5741 5447 9.846
a 5741 5708 9.2023
a 5741 5563 6.7118
a 5742 5542 30.4473
a 5743 5652 3.1781
a 5743 5573 8.6177
a 5743 5539 19.6779
a 5744 5720 4.3783
a 5744 13580 3.7598
a 5744 5522 4.5331
a 5745 5461 2.3184
a 5745 5648 2.2622
a 5745 5592 21.6119
a 5745 12192 2.623
a 5746 10175 9.2837
a 5746 5555 3.2119
a 5746 5721 3.3106
a 5747 5590 17.8891
a 5747 5551 3.2508
a 5747 5579 3.3314
a 5748 5506 3.9744
a 5748 5512 4.5029
a 5749 5584 48.6961
a 5749 5515 18.9994
a 5749 5637 3.101
a 5750 7450 23.081
a 5750 7451 9.9878
a 5750 5717 15.4937
a 5751 5650 1.3774
a 5751 5602 3.8966
a 5751 5604 3.4682
a 5752 5710 121.9793
a 5752 5516 13.2746
a 5752 5516 8.167
a 5753 5712 6.3475
a 5753 5607 6.0343
a 5753 5537 10.9346
a 5754 12378 0.5782
a 5754 11049 13.2834
a 5754 6308 18.8107
a 5755 5572 3.0269
a 5755 5625 13.1844
a 5755 5654 10.2031
a 5756 5725 3.3163
a 5756 5588 0.9122
a 5756 10479 2.016
a 5756 10513 8.3506
a 5757 5771 3.3372
a 5757 5768 14.3222
a 5757 10448 12.1558
a 5757 5778 6.7795
a 5758 5774 3.9024
a 5758 2439 3.7066
a 5758 5783 21.4013
a 5759 5773 8.0467
a 5760 9011 3.1846
a 5760 5774 2.5999
a 5760 11211 9.2938
a 5761 5775 3.4013
a 5761 11211 3.0802
a 5761 5762 8.4283
a 5761 9011 8.2246
a 5762 5769 5.8846
a 5762 11875 0.157
a 5762 5761 29.188
a 5763 5779 10.3493
a 5764 5765 8.231
a 5765 5771 3.3106
a 5765 11452 7.2821
a 5765 5767 71.8559
a 5765 5764 214.9086
a 5766 10463 2.0297
a 5766 9010 4.1033
a 5766 9010 12.1399
a 5767 5772 3.1313
a 5767 5871 12.9819
a 5767 9010 17.4075
a 5767 5765 16.7227
a 5768 5772 3.3365
a 5768 11211 15.9091
a 5768 5757 14.3222
a 5768 5769 51.6487
a 5769 5762 5.8846
a 5769 10457 8.9906
a 5769 5768 3.6619
a 5769 5777 3.2105
a 5770 5771 15.4325
a 5770 10449 6.8004
a 5770 8216 6.7486
a 5771 5765 3.3106
a 5771 5757 3.3372
a 5771 5772 15.5189
a 5771 5770 15.4325
a 5772 5768 3.3365
a 5772 5767 157.0678
a 5772 5771 15.5189
a 5772 10458 5.5375
a 5773 11211 3.6526
a 5773 5759 8.0467
a 5773 5774 17.4024
a 5773 10459 7.0949
a 5774 5758 86.8768
a 5774 5760 2.5999
a 5774 5773 17.4024
a 5775 5776 3.1716
a 5775 5761 3.4013
a 5775 9007 4.1422
a 5775 9009 7.2137
a 5776 5775 11.8508
a 5776 9007 203.0517
a 5776 9008 9.257
a 5776 9008 4.7138
a 5777 5778 11.9988
a 5777 10456 2.5229
a 5777 5769 3.2105
a 5778 5780 3.3876
a 5778 5777 11.9988
a 5778 5757 6.7795
a 5778 10450 52.4891
a 5779 5780 9.8374
a 5779 10456 1.7179
a 5779 5763 10.3493
a 5780 5778 10.9455
a 5780 13581 2.2277
a 5780 5779 9.8374
a 5781 5784 84.598
a 5782 13416 60.8702
a 5782 5784 20.0018
a 5782 5785 437.2363
a 5783 5608 9.7258
a 5783 5758 21.4013
a 5783 5785 8.5133
a 5784 5781 21.887
a 5784 5782 137.6861
a 5784 5785 8.0258
a 5785 5783 8.5133
a 5785 5782 64.5372
a 5785 5784 257.1885
a 5786 10454 7.5672
a 5786 5732 317.8163
a 5786 12335 0.9403
a 5787 5579 1.5984
a 5787 5443 1.7179
a 5787 5791 8.5356
a 5788 5789 1.9181
a 5788 5793 3.3631
a 5788 8025 9.9439
a 5789 5788 1.9181
a 5789 5791 7.0272
a 5789 5790 8.9042
a 5790 8024 1.8122
a 5790 5789 37.642
a 5790 5791 33.1624
a 5791 5789 7.0272
a 5791 5787 24.6316
a 5791 5790 3.348
a 5792 5793 1.9073
a 5793 5792 1.9073
a 5793 5788 127.6084
a 5793 8023 2.9873
a 5794 5795 52.0519
a 5795 5794 1.7266
a 5795 8025 3.9182
a 5795 8023 5.0299
a 5796 10855 1.6913
a 5796 5814 3.8261
a 5796 5797 7.7242
a 5797 5798 5.2999
a 5797 5796 7.7242
a 5797 5799 1.8058
a 5798 5803 35.7958
a 5798 10439 2.6885
a 5798 5797 5.2999
a 5799 5797 40.3609
a 5800 4235 81.7163
a 5800 12352 1.2787
a 5800 5813 38.8721
a 5801 5802 2.0124
a 5802 5801 2.0124
a 5802 5803 105.7605
a 5802 5803 3.3271
a 5803 5798 1.3666
a 5803 5802 46.6199
a 5803 5802 3.3271
a 5804 5805 12.1566
a 5805 5811 3.2774
a 5805 5808 11.7424
a 5805 5804 156.2102
a 5806 5807 80.7026
a 5807 5809 3.2465
a 5807 5806 2.0534
a 5807 5808 8.5262
a 5807 4235 9.6221
a 5808 5807 8.5262
a 5808 5805 3.1673
a 5808 5809 18.687
a 5809 5807 3.2465
a 5809 5811 3.8419
a 5809 5808 5.6376
a 5810 5811 3.5906
a 5811 5810 3.5906
a 5811 5805 8.7817
a 5811 5809 16.4735
a 5812 5717 3.132
a 5812 5813 19.1347
a 5812 2438 16.7436
a 5813 10398 5.7658
a 5813 5800 1121.4398
a 5813 9759 6.6802
a 5813 5812 19.1347
a 5814 5796 3.8261
a 5814 4236 17.4276
a 5814 11862 931.4272
a 5815 5816 48.5951
a 5816 5823 9.3434
a 5816 5815 4.6066
a 5816 5821 3.8081
a 5816 11946 0.9626
a 5817 5823 1.6884
a 5818 5819 16.843
a 5818 10418 10.3471
a 5818 5822 36.9341
a 5818 5821 44.9025
a 5819 5821 5.6981
a 5819 5818 452.5554
a 5819 5820 3.857
a 5820 5819 36.6129
a 5820 5823 75.686
a 5820 5822 26.0309
a 5821 5819 5.6981
a 5821 5816 3.8081
a 5821 5818 12.9578
a 5822 10412 17.8623
a 5822 5818 8.8978
a 5822 5820 26.0309
a 5823 5817 1.6884
a 5823 5816 9.3434
a 5823 5820 3.9586
a 5824 5829 4.2235
a 5824 5833 6.0487
a 5824 5825 22.0392
a 5825 10422 1.2377
a 5825 5467 2.5574
a 5825 5824 22.0392
a 5826 7454 2.6294
a 5826 12313 11.5949
a 5826 10426 2.903
a 5827 9126 7.9762
a 5828 5829 3.654
a 5829 5830 4.0306
a 5829 5824 4.2235
a 5829 5828 18.9431
a 5830 5829 4.0306
a 5830 5831 4.5576
a 5830 10429 5.67
a 5831 5835 1.3255
a 5831 5832 7.5809
a 5831 5830 4.5576
a 5832 5833 6.9113
a 5832 5831 7.5809
a 5832 11464 11.4703
a 5833 5824 6.0487
a 5833 9127 7.308
a 5833 5832 6.9113
a 5834 11443 3.0485
a 5835 5831 9.582
a 5835 11464 2.4725
a 5835 11443 510.8667
a 5836 5839 2.6201
a 5836 5837 8.5817
a 5836 5838 214.4904
a 5837 5838 218.3963
a 5837 5836 8.5817
a 5837 10183 18.1879
a 5838 5843 3.523
a 5838 5837 28.3242
a 5838 5836 10.6237
a 5838 5841 11.8692
a 5839 5836 2.6201
a 5839 11442 9.167
a 5839 11464 0.6048
a 5840 11442 3.191
a 5840 5841 3.7001
a 5840 10057 6.0372
a 5841 5840 3.7001
a 5841 8992 6.0178
a 5841 5838 11.8692
a 5842 5843 3.749
a 5843 5842 3.749
a 5843 5838 3.523
a 5843 5845 1.0123
a 5843 5856 17.5342
a 5844 5856 1.6214
a 5845 5843 1.0123
a 5845 5856 19.9282
a 5845 10090 2.0282
a 5846 12496 0.2218
a 5846 12495 0.5962
a 5846 12640 68.0421
a 5847 5849 6.511
a 5847 3310 43.7508
a 5847 5851 9.5573
a 5848 5850 2.0347
a 5849 4108 13.8463
a 5849 5847 6.511
a 5849 5850 123.253
a 5850 5851 44.043
a 5850 5848 2.0347
a 5850 5849 13.8722
a 5851 5850 4.5914
a 5851 5847 103.0029
a 5851 12191 5.0998
a 5852 5853 0.8662
a 5852 5855 7.411
a 5852 12627 17.8754
a 5853 5852 0.8662
a 5853 10187 9.6331
a 5853 10186 6.1142
a 5854 5855 72.6732
a 5855 5852 7.411
a 5855 10182 3.281
a 5855 5854 5.3244
a 5856 5844 1.6214
a 5856 5843 17.5342
a 5856 5845 19.9282
a 5857 13118 13.9209
a 5858 5865 5.328
a 5858 13118 5.8478
a 5858 5859 12.3826
a 5859 11853 96.0789
a 5859 5858 12.3826
a 5859 11855 6.2172
a 5859 5865 4.6735
a 5860 5861 2.0239
a 5861 5863 2.5538
a 5861 5864 11.106
a 5861 13118 2.6244
a 5861 5860 2.0239
a 5862 5863 1.4875
a 5863 5861 2.5538
a 5863 9107 2.8908
a 5863 11871 15.3965
a 5863 5862 1.4875
a 5864 11855 4.8564
a 5864 5865 2.9635
a 5864 5861 11.106
a 5865 5858 199.3078
a 5865 5864 2.9635
a 5865 5859 4.6735
a 5866 5673 3.7663
a 5866 5546 2.4646
a 5866 5867 15.7162
a 5867 9107 70.3242
a 5867 5866 15.7162
a 5867 11269 12.703
a 5867 5570 128.9414
a 5868 11853 5.238
a 5869 5871 11.8289
a 5870 5871 613.9395
a 5871 5767 3.1615
a 5871 5869 11.8289
a 5871 5870 7.7479
a 5872 4196 6.4087
a 5872 9776 4.073
a 5872 5873 13.6872
a 5873 5872 13.6872
a 5873 10834 6.6456
a 5873 5874 2.2327
a 5874 4198 191.27
a 5874 5886 15.0365
a 5874 5873 2.2327
a 5875 7562 2.6777
a 5875 5876 5.8399
a 5875 11492 4.8466
a 5875 12669 19.4193
a 5876 5877 12.2249
a 5876 5875 5.8399
a 5876 5902 6.7867
a 5877 8329 0.9986
a 5877 5876 12.2249
a 5877 5899 5.8025
a 5878 9463 5.5966
a 5878 10855 4.9406
a 5878 5879 3.487
a 5879 5880 51.9531
a 5879 8329 9.6336
a 5879 5878 3.487
a 5880 5879 3.816
a 5880 12733 25.1469
a 5880 8329 8.7055
a 5881 7176 28.0951
a 5881 5882 10.2226
a 5881 13121 3.9243
a 5882 5884 8.5788
a 5882 10836 9.3924
a 5882 5881 10.2226
a 5883 12671 1.4702
a 5883 5884 3.9794
a 5883 10836 1.9685
a 5884 13122 1.5257
a 5884 5882 8.5788
a 5884 5883 3.9794
a 5885 4198 2.0894
a 5885 5886 21.3761
a 5885 10443 10.8036
a 5886 7562 8.1936
a 5886 5874 15.0365
a 5886 5885 21.3761
a 5887 5897 5.0515
a 5888 5893 3.5698
a 5888 5894 2.2586
a 5888 7173 4.9946
a 5889 8324 1.0526
a 5889 7171 6.3396
a 5889 9767 14.099
a 5890 5891 5.6786
a 5891 5890 5.6786
a 5891 5893 3.4236
a 5891 8324 70.135
a 5892 8331 2.5898
a 5892 5907 47.0417
a 5892 5895 4.6706
a 5893 5888 3.5698
a 5893 9761 9.9727
a 5893 5891 3.4236
a 5894 5908 223.2977
a 5894 5888 2.2586
a 5894 8332 3.618
a 5895 7172 4.9018
a 5895 5908 6.2129
a 5895 5892 4.6706
a 5895 5919 10.8698
a 5896 7172 3.8174
a 5896 5917 12.1205
a 5896 5909 5.7413
a 5897 11384 5.1149
a 5897 5917 5.2301
a 5897 5887 5.0515
a 5898 5909 1.7662
a 5898 11384 4.2898
a 5898 5911 12.0881
a 5899 5877 5.8025
a 5899 5912 7.7069
a 5899 12764 8.7869
a 5900 5906 7.5564
a 5900 5901 3.9204
a 5900 5907 11.9001
a 5901 5904 4.5079
a 5901 5914 3.3106
a 5901 5900 3.9204
a 5902 12763 0.5753
a 5902 5904 19.5718
a 5902 5876 6.7867
a 5903 5906 1.5898
a 5904 5901 4.5079
a 5904 5902 4.901
a 5904 5915 34.3846
a 5905 5906 4.1285
a 5905 5914 3.2112
a 5905 5915 9.463
a 5906 5905 4.1285
a 5906 5903 1.5898
a 5906 5900 7.5564
a 5907 8332 7.2475
a 5907 5892 8.2613
a 5907 5908 3.9773
a 5907 5900 49.4702
a 5908 5894 5.9724
a 5908 7173 6.529
a 5908 5895 168.5946
a 5908 5907 3.9773
a 5909 5912 3.528
a 5909 5898 1.7662
a 5909 5896 5.7413
a 5910 5911 11.8195
a 5911 5898 12.0881
a 5911 9760 27.3752
a 5911 5910 11.8195
a 5912 5909 3.528
a 5912 5913 1.602
a 5912 5899 7.7069
a 5913 5912 45.904
a 5913 5913 17.5457
a 5913 5913 17.5457
a 5914 5901 3.3106
a 5914 5905 3.2112
a 5914 5915 5.4655
a 5915 5914 5.4655
a 5915 5904 3.0809
a 5915 5905 9.463
a 5916 9771 5.2517
a 5917 7109 4.0306
a 5917 5896 12.1205
a 5917 9771 7.3908
a 5917 5897 5.2301
a 5918 5924 5.5469
a 5918 9775 4.5295
a 5918 4220 12.2357
a 5919 8323 1.4976
a 5919 5895 10.8698
a 5919 7173 3.5712
a 5920 5921 3.2796
a 5921 9721 2.5733
a 5921 5924 7.525
a 5921 5922 11.6264
a 5921 5920 32.2634
a 5922 5921 2.8001
a 5923 5924 2.5668
a 5924 5921 1.7957
a 5924 5918 5.5469
a 5924 5923 7.2044
a 5925 9723 12.3943
a 5925 13491 35.1298
a 5925 4220 12.7354
a 5926 13491 41.4528
a 5926 4183 4.2768
a 5926 9723 3.2069
a 5927 4206 4.2444
a 5927 5928 6.431
a 5927 5930 3.078
a 5928 4205 4.2358
a 5928 5927 6.431
a 5928 5929 2.975
a 5929 5930 6.2374
a 5929 5930 10.2614
a 5929 5928 2.975
a 5930 5929 6.2374
a 5930 5929 103.512
a 5930 5927 38.0789
a 5931 4194 3.7354
a 5931 13110 13.1731
a 5931 5932 5.9407
a 5932 4185 7.8106
a 5932 5931 5.9407
a 5932 4184 5.1523
a 5933 5934 2.9009
a 5933 7437 8.8315
a 5933 8718 4.9673
a 5934 7201 2.8195
a 5934 10995 0.5652
a 5934 5933 2.9009
a 5935 13206 2.5034
a 5935 5937 1051.4244
a 5935 8343 2.9405
a 5936 12552 0.941
a 5936 2437 10.553
a 5937 13132 7.2367
a 5937 5935 14.693
a 5937 11775 13.7678
a 5938 8343 3.4481
a 5938 11775 3.8945
a 5938 11011 7.5413
a 5938 7459 4.3013
a 5939 11011 8.933
a 5939 11010 4.5482
a 5939 7456 4.1969
a 5940 12552 49.4428
a 5941 5955 2.3033
a 5941 5953 9.6386
a 5941 7458 29.673
a 5942 7197 2.3796
a 5942 5943 3.3451
a 5942 5968 1.4573
a 5943 9765 0.8006
a 5943 5965 4.5677
a 5943 5949 2.4494
a 5943 5942 3.3451
a 5944 5946 1.139
a 5945 5948 2.3098
a 5945 9763 1.463
a 5945 5949 12.1565
a 5946 5961 2.0556
a 5946 5944 1.139
a 5946 5948 2.2766
a 5946 5962 25.3984
a 5947 5964 2.2954
a 5947 7195 3.2465
a 5947 7196 3.8722
a 5948 5946 79.0182
a 5948 5945 2.3098
a 5948 5949 10.9591
a 5949 5948 304.7042
a 5949 5945 12.1565
a 5949 5943 35.9638
a 5950 7566 1.3831
a 5950 4182 4.8312
a 5950 5971 3.3271
a 5951 5972 1.8115
a 5951 5976 8.5738
a 5951 5970 7.3325
a 5952 5979 0.8705
a 5953 5954 2.5553
a 5953 5941 9.6386
a 5953 5966 2.7432
a 5954 5953 2.5553
a 5954 5956 2.4977
a 5954 5955 8.7775
a 5955 5941 2.3033
a 5955 5957 2.1089
a 5955 5954 8.7775
a 5956 5954 2.4977
a 5956 5959 2.4646
a 5956 5957 74.4416
a 5957 5955 2.1089
a 5957 5960 73.5549
a 5957 5956 7.9222
a 5958 5974 2.2997
a 5958 9764 0.887
a 5958 5970 2.3868
a 5958 5969 6.5628
a 5959 5956 2.4646
a 5959 5979 6.3079
a 5959 5973 3.1572
a 5959 5981 2.2968
a 5960 5957 2.3414
a 5960 5981 19.3003
a 5960 8359 5.1286
a 5960 5978 2.4775
a 5961 5963 10.8975
a 5961 5946 6.222
a 5961 5962 5.4086
a 5962 5964 2.2954
a 5962 5961 5.4086
a 5962 5946 5.9501
a 5963 5965 2.1499
a 5963 5961 2.4134
a 5963 5964 5.9616
a 5964 5947 2.2954
a 5964 5962 6.5307
a 5964 5963 5.9616
a 5965 5943 4.5677
a 5965 5963 2.1499
a 5965 7195 57.5933
a 5966 5967 3.5705
a 5966 7196 2.6957
a 5966 5968 5.477
a 5966 5953 2.7432
a 5967 5966 3.5705
a 5967 9766 0.9936
a 5967 5968 7.6939
a 5968 5942 1.4573
a 5968 5966 5.477
a 5968 5967 7.6939
a 5969 5975 2.5762
a 5969 5958 6.5628
a 5969 11808 2.5387
a 5970 5958 25.8371
a 5970 5977 58.8471
a 5970 5951 7.3325
a 5971 5976 4.325
a 5971 5950 3.3271
a 5971 5977 9.9058
a 5972 5951 26.8066
a 5973 5974 1.8425
a 5973 5959 3.1572
a 5973 5975 5.6959
a 5974 5973 1.8425
a 5974 5958 2.2997
a 5974 5975 4.6663
a 5975 5969 2.5762
a 5975 5973 5.6959
a 5975 5974 4.6663
a 5976 5971 4.325
a 5976 5977 1.8814
a 5976 5951 8.5738
a 5977 9770 3.8804
a 5977 5976 1.8814
a 5977 5971 9.9058
a 5977 5970 333.6512
a 5978 5980 8.1662
a 5978 7207 4.9838
a 5978 5960 2.4775
a 5978 7204 11.3998
a 5979 5952 0.8705
a 5979 5980 2.1938
a 5979 5959 6.3079
a 5980 5979 5.6931
a 5980 8359 2.1737
a 5980 5978 8.1662
a 5981 5960 4.9356
a 5981 8359 3.137
a 5981 5959 2.2968
a 5982 12612 1.373
a 5982 5983 5.9378
a 5982 3873 11.6482
a 5983 5982 28.9203
a 5984 10892 3.7058
a 5984 3873 6.9012
a 5984 5987 4.901
a 5985 5986 120.0382
a 5986 11637 6.9941
a 5986 8101 11.1283
a 5986 5985 4.5943
a 5987 8101 1.5574
a 5987 12615 53.1332
a 5987 5984 4.901
a 5988 12523 3.4265
a 5988 12936 1.1765
a 5988 12614 3.1241
a 5989 5990 14.9036
a 5989 12523 35.3492
a 5989 12521 0.3758
a 5990 5989 4.0954
a 5990 11538 5.0782
a 5990 3870 3.793
a 5991 5992 14.4036
a 5991 5996 73.2027
a 5991 12018 22.3351
a 5992 4074 4.3798
a 5992 5991 4.4172
a 5992 11769 15.0674
a 5993 4015 2.9059
a 5994 4015 3.3271
a 5994 3948 6.4397
a 5994 9108 19.453
a 5995 8585 1.1066
a 5995 11659 12.4207
a 5995 12641 8.8978
a 5996 5998 11.0686
a 5996 5991 509.8665
a 5996 10892 198.1549
a 5997 5998 8.2649
a 5998 5996 11.0686
a 5998 5997 8.2649
a 5998 6000 74.0309
a 5999 6000 5.2279
a 6000 5999 5.2279
a 6000 5998 3.2854
a 6000 8585 19.161
a 6001 8585 4.8269
a 6002 13229 6.187
a 6002 10390 3.1946
a 6002 11633 3.4481
a 6003 12613 2.7252
a 6003 4258 29.4534
a 6003 8869 4.0147
a 6003 6010 13.8082
a 6004 4252 195.03
a 6005 6007 2.5092
a 6005 11981 3.8599
a 6005 12018 7.2821
a 6006 6007 4.955
a 6006 9620 6.0466
a 6006 8943 7.421
a 6007 6005 66.3201
a 6007 6006 4.955
a 6007 8565 6.1942
a 6008 6009 0.8582
a 6009 6008 0.8582
a 6009 4257 10.458
a 6009 13574 6.0545
a 6010 6016 98.0374
a 6010 4258 4.2278
a 6010 6003 13.8082
a 6011 4254 3.042
a 6011 4252 5.2171
a 6011 6012 4.7556
a 6012 4252 4.4734
a 6012 4253 5.2978
a 6012 6011 4.7556
a 6013 6014 6.5441
a 6014 4263 9.563
a 6014 4251 7.7983
a 6014 6013 6.5441
a 6015 6017 4.2739
a 6015 6016 8.1209
a 6015 6019 2.8865
a 6016 6018 3.9823
a 6016 6010 3.1903
a 6016 6015 8.1209
a 6017 6015 4.2739
a 6017 6018 6.3814
a 6017 12522 6.6067
a 6018 4259 14.0083
a 6018 6016 3.9823
a 6018 6017 6.3814
a 6019 6015 11.4761
a 6020 6036 3.5273
a 6020 3309 13.3445
a 6020 12496 28.2103
a 6021 4250 13.034
a 6022 6023 3.2011
a 6022 4250 150.2784
a 6022 12353 1.476
a 6023 6026 7.645
a 6023 6024 3.7404
a 6023 6022 7.6402
a 6023 4245 12.1831
a 6024 9437 1.4162
a 6024 6027 17.8006
a 6024 6023 3.7404
a 6025 11500 1.5451
a 6025 8320 62.8139
a 6025 6027 3.2551
a 6026 9438 0.6674
a 6026 6023 7.645
a 6026 12619 4.7686
a 6027 9039 33.4488
a 6027 12616 107.7819
a 6027 6024 17.8006
a 6027 6025 3.2551
a 6028 12592 1.9102
a 6028 12616 1.1491
a 6028 12618 0.3384
a 6029 13549 0.3175
a 6029 12616 0.535
a 6029 8912 0.7265
a 6030 7481 3.8844
a 6030 6033 3.8614
a 6030 3908 25.6025
a 6031 6048 3.0974
a 6031 6032 5.6693
a 6031 3313 10.26
a 6032 13235 1.6294
a 6032 6031 5.6693
a 6032 6034 13.6231
a 6032 6033 17.2382
a 6033 3640 1.4479
a 6033 6030 3.8614
a 6033 6032 17.2382
a 6034 10867 1.4774
a 6034 6032 13.6231
a 6034 3309 2.4307
a 6035 10868 3.0744
a 6036 6020 3.5273
a 6036 6038 28.56
a 6036 6041 3.8513
a 6036 10868 4.6685
a 6037 6038 4.9111
a 6038 11500 9.6487
a 6038 6036 7.8574
a 6038 6039 3.8016
a 6038 6037 4.9111
a 6039 6040 1.6855
a 6039 6041 7.8574
a 6039 6038 3.8016
a 6040 6039 1.6855
a 6041 6039 7.8574
a 6041 12999 1.5934
a 6041 10866 1.1527
a 6041 6036 3.8513
a 6042 6058 5.5166
a 6043 6057 16.1194
a 6043 7510 7.0229
a 6043 7438 24.7255
a 6044 12628 5.0688
a 6044 6045 8.627
a 6044 7510 5.5397
a 6045 6049 280.6428
a 6045 3313 4.41
a 6045 6044 8.627
a 6046 6056 3.87
a 6046 8341 1.9138
a 6046 6050 3.2292
a 6047 6050 3.4567
a 6047 8354 4.2732
a 6047 6054 8.7401
a 6047 6049 1.3716
a 6048 8712 2.3832
a 6048 6031 3.0974
a 6048 7867 2.7569
a 6049 8712 4.5094
a 6049 6047 5.8434
a 6049 6045 5.3532
a 6050 6047 3.4567
a 6050 6051 4.9241
a 6050 6046 3.2292
a 6051 6055 2.9563
a 6051 6050 4.9241
a 6051 6056 3.3466
a 6052 6053 3.6259
a 6053 6052 3.6259
a 6053 6055 3.1068
a 6053 7484 18.9266
a 6054 6055 3.4445
a 6054 7484 77.2157
a 6054 6047 8.7401
a 6054 13544 2.0801
a 6055 6051 2.9563
a 6055 10870 5.112
a 6055 6054 3.4445
a 6055 6053 3.1068
a 6056 6046 20.713
a 6056 10871 1.8086
a 6056 6051 3.3466
a 6057 6043 16.1194
a 6058 6042 5.5166
a 6058 4112 6.1135
a 6058 4113 5.0868
a 6059 6069 2.8202
a 6059 6072 14.0278
a 6059 6119 9.9317
a 6059 6075 3.011
a 6060 5153 0.8438
a 6060 11108 5.6095
a 6060 12574 0.9022
a 6061 9634 1.6337
a 6061 6068 4.2833
a 6062 6063 3.6353
a 6062 12255 1.777
a 6062 6064 14.6304
a 6063 6065 26.4724
a 6063 6062 3.6353
a 6063 6064 11.1384
a 6064 6066 25.1749
a 6064 6062 493.6329
a 6064 6063 11.1384
a 6065 6067 25.98
a 6065 6063 3.803
a 6065 6066 11.1787
a 6066 6068 5.1156
a 6066 6064 3.8318
a 6066 6065 11.1787
a 6067 12334 3.037
a 6067 6065 7.1942
a 6067 6068 35.1567
a 6068 6066 5.1156
a 6068 6067 11.3465
a 6068 6061 4.2833
a 6069 6059 23.6752
a 6069 6084 14.8939
a 6069 12832 790.2941
a 6069 6134 12.6863
a 6070 5148 9.0922
a 6070 10838 10.7323
a 6070 6071 3.3602
a 6071 6073 8.2123
a 6071 6070 3.3602
a 6071 6083 2.8397
a 6071 6164 135.694
a 6072 12831 19.0283
a 6072 6076 2.7418
a 6072 6059 14.0278
a 6073 6163 2.4797
a 6073 6082 2.5697
a 6073 6153 11.7036
a 6073 6071 197.0445
a 6074 6152 1.4299
a 6074 6156 7.5789
a 6074 6166 2.5502
a 6075 6078 2.6366
a 6075 6076 14.0436
a 6075 6059 3.011
a 6076 6079 2.7115
a 6076 6072 2.7418
a 6076 6077 6.5182
a 6076 6075 14.0436
a 6077 6076 6.5182
a 6077 12830 2.2644
a 6077 6080 2.7295
a 6078 6079 334.02
a 6078 6081 2.5704
a 6078 6075 2.6366
a 6079 6082 2.5294
a 6079 6076 2.7115
a 6079 6080 7.0999
a 6079 6078 14.0587
a 6080 6079 7.0999
a 6080 6077 2.7295
a 6080 6083 2.5488
a 6081 6082 271.3541
a 6081 6078 2.5704
a 6081 6153 4.7369
a 6082 6073 2.5697
a 6082 6079 2.5294
a 6082 6083 7.6644
a 6082 6081 14.0738
a 6083 6082 7.6644
a 6083 6080 13.131
a 6083 6071 2.8397
a 6084 6133 7.2958
a 6084 6069 14.8939
a 6085 6145 3.3811
a 6085 6091 15.7097
a 6086 6149 85.4513
a 6086 6147 2.5092
a 6086 7920 6.8076
a 6087 6121 2.2385
a 6087 10251 0.9036
a 6087 6109 10.5084
a 6088 6089 6.637
a 6088 6095 14.4353
a 6088 7920 1.9058
a 6089 6088 6.637
a 6089 6099 2.7374
a 6089 6093 8.4226
a 6090 6096 14.0854
a 6090 6121 6.6384
a 6090 6109 2.1103
a 6091 6130 4.4863
a 6091 6144 2.1398
a 6091 6085 15.7097
a 6092 6131 4.6188
a 6092 6149 4.487
a 6092 6144 12.703
a 6092 6093 2.8231
a 6093 6119 8.4859
a 6093 6089 8.4226
a 6093 6092 2.8231
a 6093 6879 2.7317
a 6094 6116 4.2674
a 6094 6878 4.1364
a 6094 6111 2.2046
a 6095 9544 11.6777
a 6095 6100 2.2392
a 6095 6088 62.1711
a 6096 6090 48.6159
a 6096 6099 11.587
a 6096 6110 2.1398
a 6096 6123 2.2781
a 6097 6107 2.3335
a 6097 6118 2.0635
a 6097 6122 12.929
a 6098 6117 2.2421
a 6098 6119 2.7266
a 6098 6118 131.1069
a 6099 6096 11.587
a 6099 6089 179.3279
a 6099 6101 2.281
a 6099 6103 1.9764
a 6100 6123 2.2522
a 6100 6095 2.2392
a 6100 6102 2.3882
a 6101 6099 2.281
a 6101 6102 11.1996
a 6101 6102 11.2687
a 6102 6100 2.3882
a 6102 6101 11.1996
a 6102 6101 11.2687
a 6103 6099 1.9764
a 6103 6105 2.1168
a 6103 6104 11.3357
a 6104 6878 2.2414
a 6104 6105 9.3816
a 6104 6103 11.3357
a 6105 6103 2.1168
a 6105 6112 2.0606
a 6105 6104 9.3816
a 6106 6127 2.2637
a 6106 6107 2.4106
a 6106 6878 101.7994
a 6107 6097 2.3335
a 6107 6116 38.0028
a 6107 6106 2.4106
a 6108 6126 4.1155
a 6108 6109 5.8298
a 6108 6129 9.6754
a 6109 6108 5.8298
a 6109 6090 2.1103
a 6109 6087 10.5084
a 6109 6120 2.3494
a 6110 6878 1.9958
a 6110 6096 2.1398
a 6110 6126 4.0622
a 6111 6094 2.2046
a 6111 6879 9.3902
a 6111 6112 11.4106
a 6112 6105 2.0606
a 6112 6879 167.1663
a 6112 6111 324.4862
a 6113 6879 2.0362
a 6113 6115 2.1334
a 6113 6114 33.0181
a 6114 6116 23.3592
a 6114 6115 300.0982
a 6114 6113 11.5272
a 6115 6113 2.1334
a 6115 6117 2.0419
a 6115 6114 9.4817
a 6116 6107 1.7561
a 6116 6094 4.2674
a 6116 6114 2.0866
a 6117 6115 2.0419
a 6117 6098 2.2421
a 6117 6118 126.3297
a 6118 6097 2.0635
a 6118 6117 11.4005
a 6118 6098 9.4788
a 6119 6098 2.7266
a 6119 6059 9.9317
a 6119 6093 8.4859
a 6120 6109 2.3494
a 6120 6122 5.9803
a 6120 6122 257.7819
a 6121 9544 2.309
a 6121 6087 2.2385
a 6121 6090 6.6384
a 6122 6120 5.9803
a 6122 6120 8.2282
a 6122 6097 12.929
a 6123 6096 2.2781
a 6123 6100 2.2522
a 6123 6124 2.16
a 6124 6123 2.16
a 6124 6125 11.6676
a 6124 6125 11.5848
a 6125 9544 27.5968
a 6125 6124 11.5848
a 6125 6124 11.6676
a 6126 6128 2.0174
a 6126 6110 4.0622
a 6126 6108 4.1155
a 6127 6106 74.9985
a 6127 6128 8.0093
a 6127 6129 2.4336
a 6128 6127 35.6715
a 6128 6126 2.0174
a 6128 6129 8.5579
a 6129 6108 9.6754
a 6129 6127 2.4336
a 6129 6128 8.5579
a 6130 6091 4.4863
a 6130 6139 2.1794
a 6130 6142 2.1506
a 6131 6132 6.6139
a 6131 6092 4.6188
a 6131 6143 2.4934
a 6132 6134 4.7081
a 6132 6131 6.6139
a 6132 6138 2.5466
a 6133 6084 7.2958
a 6133 6135 2.1802
a 6133 6139 4.4942
a 6134 6132 4.7081
a 6134 6137 2.4667
a 6134 6069 2.5106
a 6135 6133 2.1802
a 6135 6136 2.3155
a 6135 6138 10.1599
a 6136 6135 2.3155
a 6136 6137 12.4531
a 6136 6137 50.3308
a 6137 6134 7.0667
a 6137 6136 12.6727
a 6137 6136 12.4531
a 6138 6132 2.5466
a 6138 6141 2.3393
a 6138 6135 10.1599
a 6139 6130 2.1794
a 6139 6140 2.1694
a 6139 6133 19.5075
a 6140 6139 2.1694
a 6140 6141 12.1306
a 6140 6141 12.1723
a 6141 6138 2.3393
a 6141 6140 12.1723
a 6141 6140 114.6976
a 6142 6143 26.6943
a 6142 6143 13.9133
a 6142 6130 2.1506
a 6143 6131 2.4934
a 6143 6142 10.2319
a 6143 6142 13.9133
a 6144 6092 12.703
a 6144 6091 2.1398
a 6144 6151 11.0013
a 6145 6085 3.3811
a 6145 6146 5.6376
a 6145 6147 5.9861
a 6146 6145 5.6376
a 6146 6148 2.5603
a 6146 6147 10.5934
a 6147 6086 9.1942
a 6147 6146 10.5934
a 6147 6145 5.9861
a 6148 6150 10.0548
a 6148 6146 69.3755
a 6148 6151 2.1391
a 6149 6092 4.487
a 6149 6086 4.1652
a 6149 6150 2.551
a 6150 6149 2.551
a 6150 6148 10.0548
a 6150 6151 12.06
a 6151 6144 2.2651
a 6151 6148 2.1391
a 6151 6150 12.06
a 6152 6074 1.4299
a 6152 11939 3.6598
a 6152 11940 12.3643
a 6153 6073 149.1026
a 6153 6162 203.8334
a 6153 6081 4.7369
a 6154 6157 2.1996
a 6154 11940 7.3987
a 6154 6155 4.8406
a 6155 6154 4.8406
a 6155 11974 9.707
a 6155 11974 8.4442
a 6156 6074 1.6099
a 6156 6159 2.6258
a 6156 6157 11.8022
a 6157 6154 2.1996
a 6157 6158 2.6611
a 6157 6156 11.8022
a 6158 6157 2.6611
a 6158 6161 2.443
a 6158 6159 147.0865
a 6159 6156 2.6258
a 6159 6160 2.5819
a 6159 6158 11.7763
a 6160 6159 2.5819
a 6160 12850 2.1118
a 6160 6161 11.754
a 6161 6158 2.443
a 6161 6162 2.5178
a 6161 6160 11.754
a 6162 6161 2.5178
a 6162 6163 11.7288
a 6162 6153 2.5178
a 6163 12850 2.6585
a 6163 6073 23.881
a 6163 6162 11.7288
a 6164 6165 6.3036
a 6164 6170 10.1928
a 6164 6071 2.7065
a 6165 6169 2.6107
a 6165 6164 20.3137
a 6165 12850 2.4271
a 6166 6167 5.423
a 6166 6168 117.7348
a 6166 6074 2.5502
a 6167 6166 5.423
a 6167 6170 5.8975
a 6167 6168 6.2993
a 6168 6166 2.7864
a 6168 6169 2.4149
a 6168 6167 6.2993
a 6169 6168 2.4149
a 6169 6165 2.6107
a 6169 6170 6.8645
a 6170 6169 6.8645
a 6170 6164 2.6374
a 6170 6167 5.8975
a 6171 10838 4.8233
a 6171 11963 0.9022
a 6171 5151 10.2017
a 6172 6173 5.9882
a 6172 6263 28.606
a 6172 6255 4.8154
a 6173 10257 1.0123
a 6173 6175 3.2213
a 6173 6172 5.9882
a 6174 6178 4.2934
a 6174 6193 5.0522
a 6174 6192 9.4601
a 6175 6181 7.8898
a 6175 6173 3.2213
a 6175 13173 1.0094
a 6176 6886 2.3242
a 6176 6178 4.0046
a 6176 10367 2.358
a 6177 6190 2.6503
a 6178 6176 4.0046
a 6178 6174 4.2934
a 6178 12996 3.5028
a 6179 6182 7.8948
a 6179 13173 3.1954
a 6179 6252 31.5335
a 6180 6181 4.0565
a 6180 10257 7.8869
a 6180 6187 7.6752
a 6180 11567 4.1868
a 6181 6182 4.1976
a 6181 6180 4.0565
a 6181 6175 7.8898
a 6181 6186 7.6507
a 6182 6179 78.0817
a 6182 6185 7.637
a 6182 6183 4.0831
a 6182 6181 4.1976
a 6183 6182 4.0831
a 6183 6252 7.9006
a 6183 6184 7.6486
a 6184 6185 4.0205
a 6184 6183 7.6486
a 6184 6190 7.7882
a 6185 6182 7.637
a 6185 6191 7.7803
a 6185 6186 4.1616
a 6185 6184 4.0205
a 6186 6187 4.176
a 6186 6185 4.1616
a 6186 6192 7.8754
a 6186 6181 7.6507
a 6187 6188 4.0752
a 6187 6186 106.8586
a 6187 6180 7.6752
a 6187 6192 12.006
a 6188 11567 7.8192
a 6188 6187 92.608
a 6188 11925 13.195
a 6188 11814 367.474
a 6189 11567 563.4649
a 6189 10257 45.2437
a 6189 6259 345.0899
a 6190 6191 4.127
a 6190 6184 88.3634
a 6190 6177 2.6503
a 6191 6185 7.7803
a 6191 12997 2.4509
a 6191 6192 4.1234
a 6191 6190 30.8036
a 6192 6191 4.1234
a 6192 6186 34.5581
a 6192 6187 12.006
a 6192 6174 9.4601
a 6193 6174 36.2311
a 6193 13142 1.1851
a 6193 6194 3.7577
a 6194 5482 8.6162
a 6194 6198 3.5424
a 6194 6193 26.6002
a 6195 6196 7.5982
a 6195 6198 3.6806
a 6195 9012 8.249
a 6196 6195 7.5982
a 6196 6197 3.7238
a 6196 10368 1.9901
a 6197 6198 8.2591
a 6197 5482 3.5064
a 6197 6196 3.7238
a 6198 6197 8.2591
a 6198 6195 3.6806
a 6198 6194 279.1779
a 6199 6200 3.7944
a 6200 6199 3.7944
a 6200 5131 18.1901
a 6200 6201 197.2328
a 6201 9574 6.5542
a 6201 6200 22.0911
a 6201 5132 13.8305
a 6202 11582 2.1715
a 6202 5155 5.2394
a 6203 6205 0.8654
a 6204 6207 5.4144
a 6204 5156 10.0418
a 6204 6219 6.0646
a 6205 6203 0.8654
a 6205 13157 0.9554
a 6205 6215 12.2551
a 6205 5156 8.1108
a 6206 6237 1.517
a 6207 6204 5.4144
a 6207 6208 31.7777
a 6207 5157 5.0335
a 6208 6209 119.4547
a 6208 6207 6.4174
a 6208 10484 16.0351
a 6209 6208 13.2682
a 6209 5156 6.12
a 6209 6210 4.4078
a 6209 10484 5.8968
a 6210 6209 4.4078
a 6211 5155 261.5226
a 6211 6212 6.7327
a 6211 5156 22.0347
a 6212 11319 9.4514
a 6212 6211 6.7327
a 6212 9624 16.6487
a 6213 10840 2.813
a 6213 11280 0.4219
a 6213 6214 3.1889
a 6214 5155 3.2976
a 6214 11320 1.458
a 6214 6213 3.1889
a 6215 6216 13.1868
a 6215 6205 12.2551
a 6215 6217 8.4017
a 6216 11582 15.8947
a 6216 6215 13.1868
a 6216 6217 16.205
a 6217 6215 8.4017
a 6217 6216 16.205
a 6218 9625 1.1455
a 6218 6225 3.685
a 6218 13154 3.1442
a 6219 6204 60.8976
a 6220 5159 2.8793
a 6220 6223 2.7929
a 6220 6227 6.9761
a 6221 5157 52.5912
a 6221 9631 2.8325
a 6221 6223 9.1001
a 6222 6223 2.1442
a 6222 12679 2.3481
a 6222 12680 0.4126
a 6223 6220 2.7929
a 6223 6222 2.1442
a 6223 6221 9.1001
a 6224 6225 6.2446
a 6225 5159 3.3566
a 6225 6224 6.2446
a 6225 6218 3.685
a 6226 6227 1.9037
a 6227 5158 3.0758
a 6227 6226 1.9037
a 6227 6220 6.9761
a 6228 5158 2.7245
a 6228 9630 14.5925
a 6228 6229 4.4021
a 6228 6230 5.2006
a 6229 6228 4.4021
a 6229 11943 2.4811
a 6229 9013 4.6411
a 6230 6232 2.6921
a 6230 11942 2.7518
a 6230 6228 5.2006
a 6231 6232 91.7326
a 6232 6230 2.6921
a 6232 6234 178.9275
a 6232 6231 3.0902
a 6233 6234 1.9433
a 6234 6232 3.096
a 6234 5150 1.8223
a 6234 6233 1.9433
a 6235 9623 8.0734
a 6235 10484 9.0965
a 6235 6243 8.0705
a 6235 9629 5.9753
a 6236 6238 1.8482
a 6237 10484 2.2853
a 6237 6206 1.517
a 6237 6238 12.1205
a 6238 9623 2.2968
a 6238 6236 1.8482
a 6238 6237 12.1205
a 6239 6240 8.0633
a 6240 6239 8.0633
a 6240 9623 5.6002
a 6240 6241 6.6233
a 6240 6243 6.5398
a 6241 6245 3.4603
a 6241 6240 67.2671
a 6241 6242 3.4589
a 6242 13146 8.0417
a 6242 13146 9.5458
a 6242 6241 3.4589
a 6243 13146 3.8203
a 6243 6235 8.0705
a 6243 6240 6.5398
a 6244 6245 5.3273
a 6244 5147 11.1758
a 6244 11142 2.7979
a 6245 12295 4.536
a 6245 6244 5.3273
a 6245 6241 3.4603
a 6245 6246 6.8263
a 6246 6245 55.7403
a 6246 12867 1.1095
a 6246 12286 3.6943
a 6247 5632 3.7937
a 6247 6248 364.0772
a 6247 5450 4.7563
a 6248 6247 8.4276
a 6248 5444 3.8239
a 6248 5727 8.6227
a 6249 10361 3.2033
a 6250 5591 1.6294
a 6251 12356 0.8438
a 6251 6252 16.3332
a 6251 5677 93.398
a 6252 6183 7.9006
a 6252 6179 4.109
a 6252 6251 16.3332
a 6253 6258 3.7778
a 6253 6254 10.3788
a 6253 12860 2.2925
a 6254 6257 35.993
a 6254 6261 4.6462
a 6254 6253 10.3788
a 6255 10258 1.8518
a 6255 6172 4.8154
a 6255 6264 3.3646
a 6256 6258 8.3693
a 6256 6257 71.7851
a 6256 6263 7.6392
a 6257 6258 21.6579
a 6257 6254 3.9643
a 6257 6256 6.2136
a 6258 6253 3.7778
a 6258 6257 6.3569
a 6258 6256 8.3693
a 6259 12575 3.2278
a 6259 12861 6.0386
a 6259 6189 14.2387
a 6260 6276 1.9123
a 6260 8522 14.6261
a 6260 8522 12.037
a 6261 6269 2.5661
a 6261 8522 9.7711
a 6261 6254 4.6462
a 6262 6263 3.2134
a 6262 6266 3.9766
a 6262 6264 11.9261
a 6263 6256 7.6392
a 6263 6172 6.4058
a 6263 6262 72.3904
a 6264 6265 3.7598
a 6264 6262 11.9261
a 6264 6255 3.3646
a 6265 6264 3.7598
a 6265 6266 13.4964
a 6265 6267 3.8434
a 6266 6262 3.9766
a 6266 6268 4.0882
a 6266 6265 13.4964
a 6267 6272 3.0449
a 6267 6268 14.9926
a 6267 6265 3.8434
a 6268 6269 3.4085
a 6268 6266 4.0882
a 6268 6267 14.9926
a 6269 6268 3.4085
a 6269 6261 2.5661
a 6269 6270 2.7065
a 6270 6269 2.7065
a 6270 6271 11.2118
a 6270 12675 110.5251
a 6271 6270 11.2118
a 6271 6272 1.062
a 6271 12675 5.1415
a 6272 6273 3.4373
a 6272 6267 3.0449
a 6272 6271 8.9804
a 6273 6272 3.4373
a 6273 7002 12.4639
a 6273 6274 7.3735
a 6274 12675 3.4301
a 6274 7003 2.4754
a 6274 6273 181.2445
a 6275 6276 11.1758
a 6275 7006 2.6885
a 6275 6277 5.7427
a 6276 6275 3.3156
a 6276 6260 1.9123
a 6276 12835 0.8957
a 6277 10356 5.9868
a 6277 10254 2.8879
a 6277 6275 5.7427
a 6278 10056 7.8638
a 6279 6337 6.7025
a 6279 12838 0.9691
a 6279 6344 1.8662
a 6280 6284 67.8627
a 6280 6288 9.2102
a 6280 12837 121.38
a 6281 6282 20.3632
a 6281 10355 20.3264
a 6281 11554 6.0091
a 6282 8958 6.323
a 6282 6281 7.0366
a 6282 6283 9.2504
a 6283 6282 3.1932
a 6283 6291 1.6582
a 6283 8957 3.0629
a 6284 6294 3.7224
a 6284 6280 5.4288
a 6284 6296 3.1522
a 6285 6296 58.8391
a 6285 6297 13.0601
a 6285 6286 3.3768
a 6286 6292 36.7718
a 6286 6289 4.7016
a 6286 6285 3.3768
a 6287 6288 3.9326
a 6288 11554 5.8529
a 6288 6287 34.4909
a 6288 6280 9.2102
a 6289 8958 4.5202
a 6289 12887 1.3925
a 6289 11554 7.2648
a 6289 6286 17.6342
a 6290 6299 30.304
a 6290 8958 4.3157
a 6290 8957 3.4114
a 6290 6292 4.4244
a 6291 8957 8.059
a 6291 7901 119.8882
a 6291 6283 1.6582
a 6292 6286 9.6919
a 6292 6293 9.7358
a 6292 6290 4.4244
a 6293 6297 71.0763
a 6293 6302 4.5346
a 6293 6292 9.7358
a 6294 6284 3.7224
a 6294 6301 21.8117
a 6294 6333 8.249
a 6295 6297 5.1178
a 6295 6296 10.9994
a 6295 6301 4.2826
a 6296 6295 10.9994
a 6296 6284 3.1522
a 6296 6285 19.1652
a 6297 6295 5.1178
a 6297 6293 7.4815
a 6297 6285 13.0601
a 6298 9787 4.8042
a 6298 6299 4.4798
a 6298 6300 14.9242
a 6299 6290 3.7073
a 6299 6298 4.4798
a 6299 6303 14.4756
a 6300 6307 4.0399
a 6300 6303 3.9989
a 6300 6298 14.9242
a 6301 6295 4.2826
a 6301 6302 14.6988
a 6301 6294 114.3895
a 6302 6303 4.3416
a 6302 6293 4.5346
a 6302 6301 62.219
a 6303 6302 4.3416
a 6303 6300 3.9989
a 6303 6299 14.4756
a 6304 12042 3.991
a 6304 10359 1.9246
a 6304 6306 3.9204
a 6305 410 8.2598
a 6305 6306 9.6343
a 6305 10359 12.6317
a 6306 6305 9.6343
a 6306 6307 33.0194
a 6306 6304 3.9204
a 6307 6306 3.7591
a 6307 6300 4.0399
a 6307 6321 3.5179
a 6308 6314 11.5114
a 6308 5754 18.8107
a 6308 5581 4.6613
a 6309 6324 4.0054
a 6309 6310 10.7762
a 6309 410 18.3181
a 6310 6323 2.7288
a 6310 12676 1.5948
a 6310 6309 10.7762
a 6311 6312 1.9159
a 6311 6313 8.6522
a 6311 12182 3.3422
a 6312 6311 36.9653
a 6313 7945 2.502
a 6313 7900 8.1864
a 6313 6311 8.6522
a 6314 7945 2.1571
a 6314 6315 7.0135
a 6314 7871 6.5729
a 6314 6308 11.5114
a 6315 6314 7.0135
a 6316 9810 1.5854
a 6316 7871 6.6622
a 6316 6318 28.3802
a 6317 6318 3.762
a 6317 7869 10.0735
a 6317 7869 15.0898
a 6318 6317 3.762
a 6318 7895 3.343
a 6318 6316 28.3802
a 6319 6320 0.697
a 6319 7895 3.3206
a 6319 7945 9.9425
a 6320 6319 0.697
a 6320 6321 6.8825
a 6320 6321 9.8258
a 6321 6320 61.8553
a 6321 6320 9.8258
a 6321 6307 3.5179
a 6322 6323 4.6786
a 6322 10471 0.9418
a 6322 6325 8.7408
a 6323 6324 9.1109
a 6323 6310 2.7288
a 6323 6322 4.6786
a 6324 6323 9.1109
a 6324 6309 4.0054
a 6324 6325 175.8068
a 6325 6322 8.7408
a 6325 5581 2.3386
a 6325 6324 4.3668
a 6326 7896 0.4507
a 6326 11479 9.6588
a 6326 7119 1.5422
a 6327 6329 11.6381
a 6327 7896 13.0669
a 6327 7898 3.8203
a 6328 6330 4.662
a 6328 6329 4.2998
a 6328 6331 10.5746
a 6329 6328 4.2998
a 6329 6327 11.6381
a 6329 6332 137.7387
a 6330 7902 7.5686
a 6330 6328 4.662
a 6330 6331 13.4287
a 6331 6328 268.23
a 6331 6332 49.9135
a 6331 6330 13.4287
a 6332 6329 12.2508
a 6332 7898 236.5475
a 6332 6331 5.0306
a 6333 6294 8.249
a 6333 6335 20.7144
a 6333 6336 5.4209
a 6334 10440 10.6452
a 6334 7902 16.5096
a 6334 6336 3.1414
a 6335 6336 16.3433
a 6335 7902 2.4415
a 6335 6333 20.7144
a 6336 6335 16.3433
a 6336 6333 49.2025
a 6336 6334 3.1414
a 6337 6279 235.4455
a 6338 10846 2.4264
a 6339 10400 6.6103
a 6339 10401 19.649
a 6339 6340 8.1497
a 6340 6339 275.085
a 6340 6341 16.2209
a 6340 6342 8.6162
a 6341 6342 11.6071
a 6341 6340 16.2209
a 6342 6341 11.6071
a 6342 6340 8.6162
a 6343 6347 3.96
a 6343 6345 5.035
a 6343 7158 49.1737
a 6344 6345 5.837
a 6344 6279 1.8662
a 6344 6346 5.4497
a 6345 6346 6.251
a 6345 6344 324.42
a 6345 6343 5.035
a 6346 6345 6.251
a 6346 10056 31.4555
a 6346 6344 5.4497
a 6347 10056 5.0861
a 6347 6343 3.96
a 6347 7159 4.212
a 6348 7159 8.1886
a 6349 6353 3.8592
a 6349 6354 13.3956
a 6349 6351 4.1818
a 6350 6351 22.7209
a 6350 10256 7.1834
a 6351 6350 7.7666
a 6351 10256 10.9937
a 6351 6349 4.1818
a 6352 6354 2.7
a 6352 7904 3.0708
a 6353 6349 218.4544
a 6353 6354 8.5018
a 6354 6352 2.7
a 6354 6349 13.3956
a 6354 6353 8.5018
a 6355 11568 3.3019
a 6355 7157 7.3822
a 6355 10406 29.7821
a 6356 7897 2.7648
a 6356 6357 1.7762
a 6356 12339 22.9529
a 6357 6356 1.7762
a 6357 7896 144.8413
a 6357 6358 26.3182
a 6358 10406 9.6725
a 6358 6357 26.3182
a 6358 10407 15.7464
a 6359 6363 41.4925
a 6359 6362 528.5754
a 6359 11858 3.2551
a 6360 6363 4.559
a 6360 6361 38.1702
a 6360 7182 100.1818
a 6361 7899 5.0486
a 6361 411 4.7462
a 6361 6360 10.4803
a 6361 6362 4.477
a 6362 6359 10.7006
a 6362 6361 4.477
a 6362 6363 8.545
a 6363 6359 4.5353
a 6363 6360 4.559
a 6363 6362 179.2476
a 6364 6654 4.5979
a 6364 6711 4.2221
a 6364 4159 15.6658
a 6364 6509 12.1082
a 6365 6670 3.4992
a 6365 6554 934.6266
a 6365 6487 7.439
a 6365 6469 9.8107
a 6366 6643 3.4272
a 6366 12631 9.0086
a 6366 6441 8.0352
a 6367 9633 4.5454
a 6367 6720 2.4991
a 6367 6764 3.4171
a 6367 12303 0.756
a 6368 6655 7.7695
a 6369 6377 3.1644
a 6369 6611 3.1219
a 6369 6528 9.913
a 6370 6587 4.302
a 6370 6532 7.7602
a 6370 6547 3.402
a 6371 6525 9.0094
a 6372 7076 2.1096
a 6372 7089 20.0324
a 6372 10660 783.9866
a 6372 6499 4.3704
a 6373 9751 0.9655
a 6373 7093 770.8795
a 6374 3695 3.757
a 6374 4134 9.0605
a 6375 7198 4.7527
a 6375 12091 2.5351
a 6375 7565 422.5201
a 6375 12278 14.3467
a 6376 3566 2.9196
a 6376 3564 3.8398
a 6376 3558 9.8042
a 6376 3536 8.2778
a 6377 6670 175.3428
a 6377 6369 3.1644
a 6377 6514 9.8618
a 6378 6730 2.1571
a 6378 6733 51.69
a 6378 6485 8.1288
a 6379 6621 3.019
a 6379 9195 15.2698
a 6379 11234 6.9293
a 6380 6585 3.1212
a 6380 6699 7.4707
a 6380 6411 22.0789
a 6381 6633 4.2379
a 6381 6573 12.2551
a 6381 6434 8.0129
a 6382 6541 6.2294
a 6382 6563 4.5151
a 6382 6492 18.9806
a 6383 6593 7.4858
a 6383 8471 4.3718
a 6383 6663 4.8434
a 6383 6555 3.5798
a 6384 6575 6.3374
a 6384 8222 33.012
a 6385 6625 4.374
a 6385 6721 3.0442
a 6385 6511 5.6513
a 6386 4167 4.9378
a 6386 12940 0.7841
a 6386 6418 10.7395
a 6387 6667 4.6505
a 6387 6584 5.1077
a 6387 9227 11.1369
a 6388 10744 0.2765
a 6388 6725 3.1169
a 6388 10637 25.986
a 6389 6728 17.2994
a 6389 11467 6.9271
a 6389 8431 6.5102
a 6390 6683 2.448
a 6390 6562 2.2702
a 6390 6484 10.3666
a 6391 10624 5.0393
a 6391 4179 3.721
a 6391 9133 1.427
a 6391 6627 21.6706
a 6392 6524 56.453
a 6392 6642 4.7455
a 6392 6477 15.0214
a 6393 7079 1.9606
a 6393 7090 26.6795
a 6393 7091 7.5722
a 6394 6425 1.8965
a 6395 4166 385.3976
a 6395 4165 3.8916
a 6395 5041 5.6873
a 6396 9132 3.2818
a 6396 6690 3.8693
a 6396 12031 3.0737
a 6396 6710 8.9856
a 6397 6479 4.4323
a 6397 6652 4.5151
a 6397 6419 6.2143
a 6397 6474 32.892
a 6398 6692 3.5374
a 6398 13338 7.5161
a 6398 6668 7.1323
a 6399 6496 149.1446
a 6399 7392 6.637
a 6399 6431 5.755
a 6400 6523 5.7794
a 6400 12070 3.0946
a 6400 6682 9.8179
a 6401 6520 5.5339
a 6401 4158 6.3202
a 6401 6601 18.4925
a 6402 6725 5.9393
a 6403 10115 14.346
a 6403 6687 5.13
a 6403 6576 30.2712
a 6404 6659 3.294
a 6404 6499 2.9657
a 6404 6555 50.6446
a 6405 6679 12.0413
a 6405 6513 3.1313
a 6405 6583 2.8577
a 6406 6489 2.2903
a 6406 11896 7.6594
a 6406 6549 10.3399
a 6407 6657 6.9026
a 6408 6516 7.8415
a 6408 6512 13.3992
a 6409 8487 3.3876
a 6409 6592 4.8413
a 6409 6739 10.8929
a 6410 9128 6.1157
a 6410 7075 4.6058
a 6410 12630 28.4591
a 6411 6659 3.8606
a 6411 6740 11.6086
a 6411 6380 7.6759
a 6412 6884 4.9716
a 6412 6884 10.9742
a 6412 6674 5.6938
a 6413 6584 27.3087
a 6413 9581 7.1971
a 6413 12695 3.8477
a 6414 11403 2.8073
a 6414 11402 1.9879
a 6414 6561 190.402
a 6415 7088 1.9634
a 6415 9046 9.3629
a 6415 7323 3.4697
a 6415 6659 4.315
a 6416 8396 5.7377
a 6416 6685 2.8512
a 6416 6567 2.3098
a 6417 6617 2.574
a 6417 6606 11.1341
a 6417 9161 16.4419
a 6418 6386 10.7395
a 6418 6491 2.9786
a 6418 4168 4.4582
a 6419 6701 2.7554
a 6419 6536 4.3582
a 6419 6397 6.2143
a 6420 6612 3.3437
a 6420 4169 3.7238
a 6420 6518 23.9501
a 6421 6698 4.4467
a 6421 9194 36.7427
a 6421 6574 13.4575
a 6422 6705 9.7884
a 6423 6694 4.3157
a 6423 6543 35.0928
a 6423 7372 11.4214
a 6424 6481 2.8886
a 6424 6721 4.5216
a 6424 6526 3.1032
a 6425 6394 1.8965
a 6425 6564 3.4315
a 6425 6572 7.7875
a 6426 6430 2.5481
a 6427 11921 5.3863
a 6427 9279 10.607
a 6427 6468 11.3796
a 6428 6515 149.699
a 6428 6596 1.967
a 6428 6734 3.2926
a 6429 6550 3.6612
a 6429 6716 16.9956
a 6429 6715 6.3763
a 6430 7072 3.8218
a 6430 6426 2.5481
a 6430 6736 9.8186
a 6431 6399 5.755
a 6432 6703 2.9758
a 6432 6703 15.4058
a 6432 6729 2.8908
a 6433 9158 2.5538
a 6433 10710 59.3608
a 6433 6457 3.5503
a 6434 6709 6.0444
a 6434 6381 8.0129
a 6434 6724 4.9759
a 6435 6582 3.2148
a 6435 6657 3.433
a 6435 4169 10.949
a 6435 10673 11.4134
a 6436 6467 2.0297
a 6436 6723 10.6557
a 6436 6655 118.6233
a 6437 6467 2.1348
a 6438 10768 1.602
a 6438 6456 4.4287
a 6438 9427 3.06
a 6439 6534 4.7052
a 6439 9313 3.6994
a 6439 12345 4.3474
a 6440 13337 0.2398
a 6440 9157 0.8957
a 6440 10736 0.5033
a 6441 6710 3.7764
a 6441 6690 7.5017
a 6441 6366 8.0352
a 6442 6500 3.5525
a 6442 6514 3.2371
a 6442 6670 9.3125
a 6443 11752 6.6485
a 6443 6569 4.4834
a 6443 9323 2.4163
a 6444 6561 2.363
a 6444 6569 562.0947
a 6444 6628 2.3126
a 6444 6723 4.2552
a 6445 6563 4.5792
a 6445 6519 229.7335
a 6445 6530 12.739
a 6446 10623 4.1602
a 6446 6722 4.0558
a 6446 6478 1178.2549
a 6447 6676 46.1918
a 6447 6482 19.1318
a 6447 12944 7.9034
a 6448 6640 5.3366
a 6448 9190 28.476
a 6448 6588 4.5972
a 6449 6472 12.3854
a 6449 6539 5.7031
a 6449 6678 3.1601
a 6450 6715 13.4431
a 6450 12694 3.5568
a 6450 6716 3.8441
a 6451 6642 3.546
a 6451 4177 115.928
a 6451 9128 6.4555
a 6452 6548 1.823
a 6452 10118 1.1138
a 6452 6738 4.0039
a 6453 6581 0.9317
a 6453 9132 8.8769
a 6453 12273 2.5502
a 6454 6717 3.6461
a 6454 6703 12.312
a 6454 9142 3.3473
a 6454 6506 18.5076
a 6455 6561 13.3466
a 6455 6569 2.6186
a 6455 6873 2.5186
a 6455 6608 14.0767
a 6456 10521 0.6091
a 6456 6438 107.3101
a 6456 6545 14.8414
a 6457 6639 2.4106
a 6457 6538 8.6227
a 6457 6433 3.5503
a 6458 6657 3.3264
a 6458 6544 3.3574
a 6458 10739 10.1167
a 6458 12043 497.8291
a 6459 6624 2.5006
a 6459 6704 19.975
a 6459 6573 4.5562
a 6460 9050 0.9173
a 6460 6585 9.144
a 6460 9048 2.0182
a 6461 9140 2.1967
a 6461 6595 2.0693
a 6461 9141 15.7522
a 6462 6561 4.0169
a 6463 6601 5.3496
a 6463 11716 5.0803
a 6463 9460 3.6662
a 6464 11402 1.8086
a 6465 7072 4.5029
a 6465 6494 6.9408
a 6465 6680 9.5342
a 6466 10663 1.975
a 6467 6436 2.0297
a 6467 6437 2.1348
a 6468 9363 4.3214
a 6468 6427 11.3796
a 6468 7392 6.9408
a 6469 6542 1.3925
a 6469 6487 6.6686
a 6469 6365 9.8107
a 6470 10676 4.4143
a 6470 10695 13.1011
a 6470 6669 2.7598
a 6471 6714 9.1807
a 6471 11518 1404.4805
a 6471 12695 317.6139
a 6472 6449 12.3854
a 6472 9148 5.0242
a 6472 9361 1283.0323
a 6472 12696 5.7319
a 6473 6706 19.247
a 6473 6598 5.3827
a 6473 10669 6.3382
a 6474 9139 4.5425
a 6474 6397 2.7583
a 6474 6632 6.9422
a 6474 9138 4.8456
a 6475 6495 2.3386
a 6475 6651 2.9196
a 6476 6869 25.1611
a 6476 6608 2.2572
a 6476 9027 3.7123
a 6477 6662 100.9483
a 6477 6510 4.3632
a 6477 6392 15.0214
a 6478 6446 18.1202
a 6478 6722 23.3057
a 6478 10623 475.7079
a 6479 6397 4.4323
a 6480 7324 3.7555
a 6480 6501 3.0888
a 6480 6577 3.9283
a 6480 6740 19.2056
a 6481 6424 2.8886
a 6481 6679 2.8238
a 6481 6583 11.983
a 6482 12944 0.5213
a 6482 6447 19.1318
a 6482 12945 1.1995
a 6483 10669 268.231
a 6483 6531 7.8134
a 6483 8398 10.0498
a 6484 6390 10.3666
a 6484 6586 9.3536
a 6484 6562 12.3451
a 6485 6493 2.4257
a 6485 6660 4.5648
a 6485 6378 8.1288
a 6486 12691 88.3581
a 6486 9205 0.7193
a 6486 6571 16.0769
a 6487 6469 6.6686
a 6487 6365 7.439
a 6487 6676 9.8366
a 6488 6549 4.225
a 6488 11656 3.1291
a 6488 8399 47.3203
a 6489 6406 2.2903
a 6489 6685 5.5152
a 6489 11469 1.5646
a 6490 10736 11.6935
a 6490 10736 14.7917
a 6490 8463 7.5334
a 6491 6418 2.9786
a 6491 6613 10.4623
a 6491 6546 14.1055
a 6492 6382 18.9806
a 6492 6876 30.9701
a 6492 9144 4.3524
a 6492 11843 6.6564
a 6493 6485 2.4257
a 6493 10547 13.5569
a 6493 6730 8.6119
a 6494 6465 6.9408
a 6494 6680 4.8528
a 6494 6553 4.986
a 6495 6628 132.6629
a 6495 6630 2.713
a 6495 6475 2.3386
a 6496 10545 2.1593
a 6496 6399 4.8946
a 6496 8426 17.527
a 6496 9289 5.9774
a 6497 6620 87.1822
a 6497 13334 0.8143
a 6497 10663 3.595
a 6498 6565 1.8914
a 6498 10692 0.6077
a 6498 6669 13.104
a 6499 6404 106.5761
a 6499 8471 12.3703
a 6499 6372 35.2707
a 6500 6442 3.5525
a 6500 6656 4.0457
a 6500 6578 4.4719
a 6501 10664 0.4601
a 6501 6480 3.0888
a 6501 12698 3.3854
a 6502 5127 3.6749
a 6503 6601 4.2624
a 6503 6520 17.5802
a 6503 6505 14.0652
a 6504 6548 2.1809
a 6504 6884 3.0074
a 6504 6597 13.59
a 6505 6520 174.5249
a 6505 6603 5.8529
a 6505 6503 14.0652
a 6506 6454 18.5076
a 6506 6729 9.3586
a 6506 6717 23.3654
a 6507 6670 8.6659
a 6507 6656 198.3622
a 6507 6578 3.0132
a 6508 10744 7.3562
a 6508 10638 9.2023
a 6508 7372 2.8318
a 6509 6752 22.1386
a 6509 6706 3.9607
a 6509 6364 12.1082
a 6510 6477 4.3632
a 6510 4177 4.7275
a 6510 4174 10.6531
a 6511 6625 2.7245
a 6511 6385 5.6513
a 6511 6721 16.8509
a 6512 6731 3.0902
a 6512 6516 13.3799
a 6513 6405 3.1313
a 6513 6679 15.1351
a 6513 6658 18.486
a 6514 6528 3.6137
a 6514 6442 3.2371
a 6514 6591 4.2322
a 6514 6377 9.8618
a 6515 6428 4.3589
a 6515 6734 4.055
a 6515 12090 0.9893
a 6516 6709 3.6878
a 6516 6408 7.8415
a 6517 6533 8.6868
a 6518 6420 23.9501
a 6519 6445 4.4114
a 6519 6530 13.8082
a 6519 6705 9.6502
a 6519 13381 1.8662
a 6520 6505 7.321
a 6520 6401 5.5339
a 6520 6503 17.5802
a 6521 6649 4.0882
a 6521 8903 1.1124
a 6521 12692 5.5627
a 6522 6647 4.7707
a 6522 10116 30.1856
a 6522 9231 1.7302
a 6522 6666 6.6406
a 6523 6400 5.7794
a 6523 9149 19.9224
a 6523 6570 436.9277
a 6524 9129 4.5223
a 6524 6392 4.6058
a 6524 6662 17.3563
a 6525 6560 6.0127
a 6525 6634 2.9758
a 6525 6371 9.0094
a 6525 6533 3.523
a 6526 6424 3.1032
a 6526 6658 11.9527
a 6526 12161 17.483
a 6527 10633 2.6251
a 6527 6677 1.0548
a 6527 10632 6.2388
a 6528 6369 9.913
a 6528 6514 3.6137
a 6528 6671 2.2154
a 6529 6710 8.4348
a 6529 6643 1.247
a 6529 6665 22.2415
a 6530 6519 13.8082
a 6530 6445 12.739
a 6530 11843 5.3964
a 6531 4160 5.423
a 6531 6654 7.393
a 6531 6483 7.8134
a 6532 6587 5.9854
a 6532 7370 3.8318
a 6532 6370 7.7602
a 6533 6544 3.271
a 6533 10674 9.6826
a 6533 6517 8.6868
a 6533 6525 3.523
a 6534 6616 1.3262
a 6534 6439 4.7052
a 6534 12344 4.3704
a 6535 9229 4.3229
a 6535 9227 2.0491
a 6535 9230 72.6694
a 6536 6419 4.3582
a 6537 6609 13.3661
a 6537 6708 15.6413
a 6537 6594 16.3908
a 6538 6457 8.6227
a 6539 6592 4.6483
a 6539 12696 5.8061
a 6539 6449 425.3041
a 6540 6704 4.8262
a 6540 4167 1.7352
a 6540 7368 10.4609
a 6541 6701 2.0585
a 6541 9145 1.3514
a 6541 6382 6.2294
a 6542 6469 1.3925
a 6543 9135 4.3877
a 6543 6423 433.939
a 6543 6605 1.3313
a 6544 6458 3.3574
a 6544 6533 3.271
a 6544 11501 10.2859
a 6544 10675 21.6281
a 6545 6728 498.6827
a 6545 6660 22.379
a 6545 6456 14.8414
a 6546 6613 4.3164
a 6546 6491 14.1055
a 6546 13069 1.8684
a 6547 4180 3.2119
a 6547 7370 12.2969
a 6547 6370 3.402
a 6548 6452 1.823
a 6548 6504 2.1809
a 6548 8488 189.2512
a 6549 6488 4.225
a 6549 11657 6.0163
a 6549 6406 10.3399
a 6550 6429 3.6612
a 6550 10691 9.4802
a 6550 9174 13.122
a 6550 10937 2.3436
a 6551 12631 5.8529
a 6551 6718 3.6014
a 6551 6559 26.7228
a 6552 6632 4.6303
a 6552 6686 16.0578
a 6552 9203 3.9866
a 6553 6494 4.986
a 6553 6736 4.207
a 6553 7072 8.5068
a 6554 6627 3.6043
a 6554 6607 3.2868
a 6554 6365 17.015
a 6555 6585 3.3149
a 6555 6404 16.3771
a 6555 6383 3.5798
a 6556 6580 4.5986
a 6556 9136 1.2686
a 6556 6607 20.4264
a 6557 9148 21.2976
a 6557 6653 5.0184
a 6557 6712 3.8887
a 6558 10669 5.3741
a 6558 6702 3.5791
a 6558 9181 16.6262
a 6558 4160 16.0704
a 6559 6643 21.0737
a 6559 6696 15.1927
a 6559 6551 26.7228
a 6560 6525 6.0127
a 6561 6455 13.3466
a 6561 6462 4.0169
a 6561 6444 2.363
a 6561 6414 2.1982
a 6562 6390 2.2702
a 6562 6708 14.8579
a 6562 6484 12.3451
a 6563 6445 4.5792
a 6563 11843 15.9026
a 6563 6382 15.9868
a 6564 11751 4.1724
a 6564 9323 2.6892
a 6564 6425 3.4315
a 6565 6498 1.8914
a 6565 6669 11.2738
a 6565 6669 14.8608
a 6566 13340 1.0591
a 6566 13303 1.4724
a 6566 6599 30.7642
a 6567 11469 12.1745
a 6567 6416 2.3098
a 6567 6571 15.5448
a 6568 6572 2.3141
a 6569 6443 4.4834
a 6569 6455 2.6186
a 6569 6444 637.6528
a 6569 6688 59.6055
a 6570 9195 16.1748
a 6570 6523 8.3066
a 6570 6682 4.9068
a 6571 9204 6.4246
a 6571 6685 4.7455
a 6571 6486 16.0769
a 6571 6567 15.5448
a 6572 6568 21.4384
a 6572 11751 0.8316
a 6572 6425 7.7875
a 6573 9282 4.1465
a 6573 6381 266.7985
a 6573 6459 4.5562
a 6574 6673 4.6008
a 6574 6421 13.4575
a 6574 6617 14.3316
a 6575 10532 5.459
a 6575 6604 4.5454
a 6576 6666 2.8714
a 6576 6403 4.1256
a 6576 10116 5.8493
a 6577 7322 3.2256
a 6577 9046 34.6862
a 6577 6480 3.9283
a 6578 10634 1.0634
a 6578 6500 4.4719
a 6578 6507 3.0132
a 6579 10526 150.1692
a 6579 10526 160.3559
a 6580 6700 18.1714
a 6580 6556 4.5986
a 6580 6888 3.8232
a 6581 13304 0.5962
a 6581 6453 0.9317
a 6581 6661 4.7088
a 6582 9159 104.7536
a 6582 6435 32.1138
a 6582 6707 16.2173
a 6582 6639 3.623
a 6583 6481 11.983
a 6583 6625 2.7763
a 6583 6405 2.8577
a 6584 6413 7.2418
a 6584 6387 5.1077
a 6584 9228 2.9822
a 6584 12721 5.0278
a 6585 6380 3.1212
a 6585 6555 3.3149
a 6585 6460 528.6022
a 6586 6683 51.7912
a 6586 6484 236.3949
a 6586 6731 2.1931
a 6587 6532 5.9854
a 6587 6607 3.3984
a 6587 6370 4.302
a 6588 6705 4.4561
a 6588 6448 4.5972
a 6588 9190 125.999
a 6589 11278 9.5832
a 6589 6611 3.1802
a 6589 6627 5.5094
a 6590 4171 3.2306
a 6590 9150 7.6522
a 6590 4163 11.399
a 6591 6671 19.9808
a 6591 13501 2.2385
a 6591 6514 4.2322
a 6592 6539 4.6483
a 6592 6701 2.8656
a 6592 6409 4.8413
a 6593 6383 58.4265
a 6593 6650 5.7413
a 6593 6719 3.6634
a 6594 6609 2.7727
a 6594 6658 3.3552
a 6594 6537 16.3908
a 6595 6461 2.0693
a 6595 9077 1.1729
a 6595 9140 104.0324
a 6596 6428 1.967
a 6596 6614 2.6143
a 6596 6610 4.4237
a 6597 6622 5.2272
a 6597 6635 3.564
a 6597 6504 92.8777
a 6598 11236 20.7727
a 6598 9181 2.1391
a 6598 6689 18.9511
a 6598 6473 5.3827
a 6599 6720 24.9692
a 6599 12158 0.306
a 6599 6566 11.2874
a 6600 11167 39.7119
a 6600 5127 1.4486
a 6600 11170 11.0671
a 6600 6730 5.8349
a 6601 6463 71.7206
a 6601 6503 4.2624
a 6601 6401 18.4925
a 6602 6719 6.2186
a 6602 6735 51.6446
a 6602 6650 3.7282
a 6603 6693 4.3798
a 6603 9169 349.8748
a 6603 6505 28.2551
a 6603 9161 8.9935
a 6604 13343 0.2794
a 6604 9422 17.8337
a 6604 6575 151.1564
a 6605 6636 3.3386
a 6605 6543 1.3313
a 6605 10744 3.2515
a 6606 6417 11.1341
a 6607 6587 3.3984
a 6607 6556 20.4264
a 6607 6554 3.2868
a 6608 6476 25.9106
a 6608 6455 14.0767
a 6608 6688 2.4516
a 6609 6708 2.7137
a 6609 6594 2.7727
a 6609 6537 13.3661
a 6610 6681 2.7367
a 6610 6734 1.759
a 6610 6596 4.4237
a 6611 6369 3.1219
a 6611 6589 3.1802
a 6611 6691 10.7906
a 6612 9075 3.4265
a 6612 6420 3.3437
a 6612 6675 9.5674
a 6613 10628 4.608
a 6613 6546 243.5504
a 6613 6491 10.4623
a 6614 6596 2.6143
a 6614 6681 6.138
a 6614 6869 2.5474
a 6615 6702 21.3696
a 6615 4159 5.3964
a 6615 9460 2.2817
a 6616 10113 5.6419
a 6616 6534 1.3262
a 6616 11782 1.8202
a 6617 6417 2.574
a 6617 6574 14.3316
a 6617 6693 6.3432
a 6617 6715 17.5213
a 6618 6678 21.9593
a 6618 62 17.455
a 6618 8906 10.3831
a 6619 9144 7.0704
a 6619 6722 251.4241
a 6620 11276 1.8474
a 6620 6497 7.0826
a 6620 10664 3.8347
a 6621 6379 3.019
a 6621 10671 4.3625
a 6621 9195 10.4587
a 6622 6597 54.4833
a 6623 9321 0.3658
a 6623 9048 10.3392
a 6623 6699 3.2162
a 6624 6459 27.5446
a 6625 6385 4.374
a 6625 6583 2.7763
a 6625 6511 2.7245
a 6626 6668 260.5796
a 6626 9050 4.1234
a 6626 10661 216.678
a 6627 6554 3.6043
a 6627 6589 5.5094
a 6627 6391 21.6706
a 6627 11278 11.6482
a 6628 6495 2.6244
a 6628 6444 2.3126
a 6628 9323 15.264
a 6629 9174 3.4459
a 6629 12693 2.6143
a 6629 6716 4.2408
a 6630 6495 2.713
a 6630 6723 5.0177
a 6631 6634 8.478
a 6632 6695 1.17
a 6632 6552 4.6303
a 6632 6474 6.9422
a 6633 6381 4.2379
a 6633 6408 3.9038
a 6634 6525 2.9758
a 6634 6635 4.1933
a 6634 10738 5.7816
a 6634 6631 8.478
a 6635 6634 34.7199
a 6635 6726 7.5845
a 6635 6597 3.564
a 6636 6605 3.3386
a 6637 6651 9.5076
a 6637 6651 7.0934
a 6637 9323 64.7395
a 6638 13332 0.3974
a 6638 12698 168.7197
a 6638 8467 3.8858
a 6639 6457 2.4106
a 6639 10696 96.0666
a 6639 6582 3.623
a 6640 6448 5.3366
a 6640 62 4.0392
a 6640 13620 52.8622
a 6641 9226 3.9377
a 6641 8438 0.7582
a 6642 6451 3.546
a 6642 6392 4.7455
a 6642 7071 7.4786
a 6643 6559 4.297
a 6643 6529 1.247
a 6643 6366 3.4272
a 6644 6720 37.9656
a 6645 6700 3.1594
a 6645 10624 4.5626
a 6645 4179 3.6655
a 6645 6888 16.7623
a 6646 7320 132.3974
a 6647 9230 1.7352
a 6647 10117 1.903
a 6647 6522 4.7707
a 6648 11019 0.4882
a 6648 5126 21.5028
a 6648 9426 4.217
a 6649 59 99.8176
a 6649 6521 4.0882
a 6649 9173 4.5144
a 6649 9163 7.4405
a 6650 6593 5.7413
a 6650 6735 6.9307
a 6650 6602 3.7282
a 6650 11623 54.9896
a 6651 6475 2.9196
a 6651 6637 9.5076
a 6651 6637 7.0934
a 6652 13532 1.0368
a 6652 6397 4.5151
a 6653 8906 35.9683
a 6653 9025 35.8474
a 6653 6557 5.0184
a 6654 6364 4.5979
a 6654 6531 7.393
a 6654 8398 0.7013
a 6655 6368 7.7695
a 6655 6436 10.075
a 6656 7369 3.0571
a 6656 6676 3.8542
a 6656 6507 4.068
a 6656 6500 4.0457
a 6657 6435 3.433
a 6657 6458 3.3264
a 6657 6407 6.9026
a 6658 6594 3.3552
a 6658 6513 18.486
a 6658 6526 157.9778
a 6659 7324 8.015
a 6659 6404 3.294
a 6659 6411 3.8606
a 6659 6415 4.315
a 6660 6485 4.5648
a 6660 10546 8.4326
a 6660 6545 220.4737
a 6661 6664 13.4825
a 6661 13305 0.4428
a 6661 6581 4.7088
a 6662 6477 4.3999
a 6662 6524 17.3563
a 6662 4980 110.9278
a 6663 6719 24.304
a 6663 6383 4.8434
a 6663 9047 33.3208
a 6664 6661 4.2876
a 6664 13303 0.527
a 6664 13301 5.424
a 6665 11887 5.5166
a 6665 6529 61.5254
a 6665 6696 3.1673
a 6666 6576 107.8319
a 6666 6522 6.6406
a 6666 12695 10.1549
a 6667 6387 4.6505
a 6668 6672 3.7822
a 6668 6398 7.1323
a 6668 6626 5.4799
a 6669 6565 11.2738
a 6669 6565 14.8608
a 6669 6470 2.7598
a 6669 6498 350.0477
a 6670 6377 3.0492
a 6670 6365 3.4992
a 6670 6507 599.386
a 6670 6442 9.3125
a 6671 6691 3.5136
a 6671 6528 2.2154
a 6671 6591 5.4389
a 6672 6668 3.7822
a 6672 6692 7.9841
a 6672 10662 8.9597
a 6673 9169 4.6318
a 6673 6574 4.6008
a 6673 6698 49.1465
a 6673 6693 12.3502
a 6674 6412 5.6938
a 6675 6612 9.5674
a 6676 6656 3.8542
a 6676 6447 2.2644
a 6676 6487 9.8366
a 6677 6527 1.0548
a 6678 6449 3.1601
a 6678 6618 21.9593
a 6678 8906 23.125
a 6679 6405 12.0413
a 6679 6481 2.8238
a 6679 6513 15.1351
a 6680 12950 0.6876
a 6680 6494 4.8528
a 6680 6465 9.5342
a 6681 6614 6.138
a 6681 6610 2.7367
a 6681 12307 2.3256
a 6682 6400 9.8179
a 6682 6570 212.2603
a 6682 10708 7.7306
a 6683 6390 2.448
a 6683 6586 12.4402
a 6683 12161 15.4548
a 6684 11571 62.0565
a 6684 11787 34.5793
a 6684 9134 9.9835
a 6685 6571 4.7455
a 6685 6489 5.5152
a 6685 6416 2.8512
a 6686 9144 0.7862
a 6686 6619 7.0416
a 6687 6403 5.13
a 6687 10114 2.1125
a 6687 10116 2.1694
a 6688 12805 1.895
a 6688 6608 2.4516
a 6688 6569 142.1054
a 6689 6696 4.7239
a 6689 6694 4.7916
a 6689 6598 85.1862
a 6690 6441 7.5017
a 6690 10720 5.3294
a 6690 6396 3.8693
a 6690 6718 3.5294
a 6691 6671 3.5136
a 6691 11278 2.9707
a 6691 6611 10.7906
a 6692 6398 3.5374
a 6692 6672 7.9841
a 6692 6735 9.4421
a 6693 6603 4.3798
a 6693 6673 12.3502
a 6693 6617 152.6537
a 6694 9135 7.0776
a 6694 6423 4.3157
a 6694 6689 4.7916
a 6695 6632 1.17
a 6696 6689 4.7239
a 6696 11236 6.0034
a 6696 6559 15.1927
a 6696 6665 3.1673
a 6697 13501 0.5299
a 6697 10632 4.4302
a 6697 7369 9.2729
a 6698 6421 33.3207
a 6698 6673 10.4047
a 6698 9169 31.8808
a 6699 6740 4.9637
a 6699 6380 7.4707
a 6699 6623 3.2162
a 6700 12939 0.7762
a 6700 6645 3.1594
a 6700 6580 598.1627
a 6700 10624 66.5704
a 6701 6419 2.7554
a 6701 6541 2.0585
a 6701 6592 2.8656
a 6702 6558 3.5791
a 6702 9193 0.5191
a 6702 6615 21.3696
a 6703 6432 2.9758
a 6703 6432 15.4058
a 6703 6454 12.312
a 6704 9282 18.5119
a 6704 6540 4.8262
a 6704 6459 19.975
a 6705 6588 4.4561
a 6705 6519 9.6502
a 6705 6422 9.7884
a 6706 6473 19.247
a 6706 6509 3.9607
a 6706 10666 5.0328
a 6706 11236 7.619
a 6707 6582 16.2173
a 6708 6609 2.7137
a 6708 6562 14.8579
a 6708 6537 15.6413
a 6709 6633 7.8156
a 6709 6434 6.0444
a 6710 6529 8.4348
a 6710 6441 3.7764
a 6710 6396 103.7716
a 6710 9344 7.5283
a 6711 6364 134.4443
a 6711 9339 4.1227
a 6711 8392 7.5938
a 6711 11467 3.8455
a 6712 6557 3.8887
a 6713 12707 53.968
a 6714 12343 5.3496
a 6714 6471 9.1807
a 6714 10113 4.2811
a 6715 6450 13.4431
a 6715 6429 6.3763
a 6715 6617 4.2106
a 6716 6629 4.2408
a 6716 6429 16.9956
a 6716 6450 3.8441
a 6717 6454 16.7449
a 6717 6506 23.3654
a 6717 7367 95.5663
a 6718 6690 3.5294
a 6718 12631 6.9358
a 6718 6551 3.6014
a 6719 6602 6.2186
a 6719 6663 22.3156
a 6719 6593 3.6634
a 6720 6644 4.9874
a 6720 6599 2.4912
a 6720 6367 2.4991
a 6721 6385 3.0442
a 6721 6424 4.5216
a 6721 6511 16.8509
a 6722 6446 4.0558
a 6722 6478 23.3057
a 6722 6619 26.7048
a 6723 6444 4.2552
a 6723 6436 3.2407
a 6723 6630 5.0177
a 6724 6434 4.9759
a 6725 6388 3.1169
a 6725 10635 1.985
a 6725 6402 5.9393
a 6725 12697 9.1793
a 6726 6635 7.5845
a 6727 9312 41.7886
a 6727 10117 1.9591
a 6727 9313 2.97
a 6728 11469 10.0181
a 6728 6389 17.2994
a 6728 6545 10.5494
a 6729 6432 2.8908
a 6729 6739 34.6931
a 6729 6506 9.3586
a 6730 6378 2.1571
a 6730 9427 10.0109
a 6730 6493 8.6119
a 6730 6600 5.8349
a 6731 12161 0.733
a 6731 6512 3.0902
a 6731 6586 2.1931
a 6732 10710 2.6453
a 6733 6378 4.9882
a 6734 6610 47.0139
a 6734 6515 4.055
a 6734 6428 102.184
a 6735 6602 40.0565
a 6735 6692 194.0601
a 6735 6650 6.9307
a 6736 6553 4.207
a 6736 6430 9.8186
a 6736 4164 1.8914
a 6737 9000 2.8166
a 6737 9075 3.2983
a 6737 10625 12.6475
a 6738 6452 43.1033
a 6739 6729 3.6482
a 6739 11518 3.5626
a 6739 6409 10.8929
a 6740 6699 72.922
a 6740 6480 4.253
a 6740 6411 11.6086
a 6741 3174 6.2006
a 6741 8437 0.7157
a 6742 9340 12.667
a 6742 6756 7.5823
a 6742 12711 7.6298
a 6743 6755 4.9594
a 6743 8437 2.2975
a 6743 6744 7.3886
a 6744 8425 1.9541
a 6744 6745 336.8874
a 6744 6743 7.3886
a 6745 8428 2.0009
a 6745 6750 4.2732
a 6745 6746 2.3479
a 6745 6744 7.7422
a 6746 6745 2.3479
a 6747 6749 3.3019
a 6748 6749 3.0298
a 6749 6748 3.0298
a 6749 11243 4.5403
a 6749 6747 107.244
a 6750 6745 4.2732
a 6750 11243 0.4277
a 6750 6751 1.854
a 6751 6750 1.854
a 6752 6753 3.5878
a 6752 6509 8.7646
a 6752 6761 6.3684
a 6753 6754 8.6162
a 6753 6752 3.5878
a 6753 6763 19.3026
a 6754 9316 20.7468
a 6754 6757 22.0663
a 6754 6753 8.6162
a 6755 8406 0.7279
a 6755 6743 4.9594
a 6755 7067 14.1336
a 6756 8406 2.6525
a 6756 6742 7.5823
a 6756 7068 13.4734
a 6757 8393 1.8778
a 6757 6754 3.3595
a 6757 6758 17.5522
a 6758 11798 4.3898
a 6758 9340 13.8211
a 6758 6757 17.5522
a 6759 6760 3.2054
a 6760 6759 3.2054
a 6760 12116 1.7842
a 6760 9339 7.0495
a 6761 10668 1.7417
a 6761 6752 6.3684
a 6761 6762 2.6446
a 6762 6761 2.6446
a 6763 6753 5.2301
a 6764 6367 3.4171
a 6764 12708 0.5371
a 6764 9131 14.616
a 6765 12789 1.4011
a 6765 10609 18.3967
a 6765 10605 13.2163
a 6766 6778 2.3839
a 6766 9267 1.6243
a 6766 8385 33.5272
a 6767 9263 2.905
a 6767 12794 1.7777
a 6767 9906 8.9662
a 6767 6770 2.9189
a 6768 12790 0.0965
a 6768 12794 0.959
a 6768 9264 2.3789
a 6769 12790 5.7413
a 6769 11700 3.8081
a 6769 6775 4.3711
a 6769 9268 3.9355
a 6770 12305 1.3284
a 6770 6776 3.8844
a 6770 6767 2.9189
a 6771 6778 45.9449
a 6771 6774 46.794
a 6771 7683 10.6186
a 6771 6772 9.8518
a 6772 6773 1.7496
a 6772 6771 9.8518
a 6772 6777 8.0374
a 6773 6772 45.7843
a 6773 6774 9.7034
a 6773 6776 2.471
a 6774 6771 1.9541
a 6774 6775 1.2283
a 6774 6773 9.7034
a 6775 6774 13.3707
a 6775 6776 8.7775
a 6775 6769 63.5901
a 6776 6775 97.7009
a 6776 6773 2.471
a 6776 6770 10.8339
a 6777 8388 3.5107
a 6777 11725 128.296
a 6777 6772 101.7558
a 6778 6766 2.3839
a 6778 6771 1.9044
a 6778 8386 3.744
a 6779 5050 8.352
a 6779 6780 11.3134
a 6779 148 0.5782
a 6780 10613 2.4725
a 6780 6782 15.5923
a 6780 6779 11.3134
a 6781 10616 4.1566
a 6781 10610 0.6271
a 6781 9331 7.5499
a 6782 6780 72.8292
a 6782 9748 23.6323
a 6782 6793 8.5759
a 6783 6784 6.2165
a 6783 3541 14.0724
a 6783 3597 28.2824
a 6784 6785 6.3439
a 6784 6783 6.2165
a 6784 3565 13.7203
a 6784 5015 10.1974
a 6785 6784 53.1994
a 6785 11999 0.3247
a 6785 5050 14.4857
a 6786 8789 3.289
a 6786 11999 6.7997
a 6786 8790 4.0111
a 6787 6789 4.4539
a 6787 11999 1.4494
a 6787 8789 7.7666
a 6788 3556 1.9289
a 6788 9748 1.3421
a 6788 8789 5.508
a 6789 6787 4.4539
a 6789 3559 6.8623
a 6790 10775 1.345
a 6790 12068 5.4922
a 6790 6792 3.2969
a 6791 10698 1.8238
a 6791 6792 4.9954
a 6791 9082 7.0027
a 6792 8147 3.5726
a 6792 6791 4.9954
a 6792 6790 3.2969
a 6793 11510 5.4677
a 6793 7758 1.7359
a 6793 6782 8.5759
a 6794 7758 1.0382
a 6794 6795 5.0069
a 6795 9245 9.2664
a 6795 6802 7.4887
a 6796 9921 3.0146
a 6796 11130 4.307
a 6796 8548 121.33
a 6796 11606 5.5303
a 6797 7681 14.8644
a 6798 13488 27.476
a 6798 9837 46.0164
a 6798 10707 15.7072
a 6799 11703 1.3882
a 6799 8444 2.0484
a 6799 9836 1.7345
a 6800 10764 2.9945
a 6800 10699 1.7791
a 6800 9920 3.109
a 6801 8444 1.6704
a 6801 8442 3.451
a 6801 9925 9.9626
a 6802 9256 3.199
a 6802 6795 7.4887
a 6802 6811 301.1872
a 6803 6806 2.5877
a 6803 9242 5.089
a 6804 9243 1.6891
a 6804 9910 1.8266
a 6804 11448 1.8101
a 6804 9247 2.9369
a 6805 9910 1.3414
a 6805 6807 13.5072
a 6805 9246 3.4718
a 6805 6814 169.3744
a 6806 9238 4.5806
a 6806 11330 10.7258
a 6807 6813 38.7711
a 6807 9915 2.209
a 6807 6805 13.5072
a 6808 6809 3.0254
a 6808 6814 2.0966
a 6808 11418 5.1379
a 6809 9902 44.7312
a 6809 6808 3.0254
a 6809 9903 3.641
a 6810 9244 2.3321
a 6810 6803 5.6398
a 6811 9250 0.9619
a 6811 9252 2.6885
a 6811 6802 8.8265
a 6812 9252 2.5711
a 6812 9904 5.0242
a 6812 8548 9.522
a 6812 9251 4.2372
a 6813 6807 30.2461
a 6813 10764 2.8375
a 6813 9916 5.1955
a 6814 9902 2.8649
a 6814 6808 2.0966
a 6814 6805 3.0276
a 6814 9915 10.9778
a 6815 1223 3.762
a 6815 6843 1.4566
a 6815 11573 2.2298
a 6816 9897 1.8144
a 6816 8147 6.6391
a 6817 6828 1.3982
a 6817 6820 176.5851
a 6818 6827 13.5266
a 6818 6820 2.6251
a 6818 6826 11.3911
a 6819 6826 3.3149
a 6819 6823 10.0695
a 6819 6827 5.053
a 6820 6818 2.6251
a 6820 6825 11.5481
a 6821 6830 5.6635
a 6822 6824 3.1788
a 6822 6823 6.449
a 6823 6819 2.7115
a 6823 6833 3.1874
a 6823 6822 6.449
a 6824 6831 1.5386
a 6824 6825 6.5052
a 6825 6826 2.6489
a 6825 6824 6.5052
a 6825 6823 3.407
a 6826 6819 3.3149
a 6826 6827 2.3724
a 6826 6825 2.6489
a 6826 6818 11.3911
a 6827 6826 2.3724
a 6827 6819 5.053
a 6827 6818 13.5266
a 6828 10773 20.2664
a 6828 6817 1.3982
a 6828 6829 3.4517
a 6829 8405 12.8203
a 6829 9900 5.7535
a 6829 6828 3.4517
a 6830 6821 5.6635
a 6830 6840 6.0689
a 6830 9898 3.9679
a 6830 6831 3.7685
a 6831 6829 72.5659
a 6831 6830 3.7685
a 6832 6833 3.3862
a 6833 6832 3.3862
a 6833 6836 3.1522
a 6833 6834 274.5674
a 6834 6839 1.7006
a 6834 6833 6.192
a 6835 6834 3.4733
a 6835 6836 5.8615
a 6836 6837 3.3286
a 6836 6835 5.8615
a 6837 10774 8.4402
a 6837 6838 5.6491
a 6838 6835 40.296
a 6838 6837 5.6491
a 6839 6822 1.5055
a 6839 6840 3.1997
a 6840 6830 6.0689
a 6840 8147 7.6212
a 6840 6839 3.1997
a 6841 12078 1.0375
a 6841 9070 165.83
a 6842 11839 3.1421
a 6842 11573 2.2442
a 6842 11575 2.8793
a 6843 10780 1.3802
a 6843 6815 5.9719
a 6843 9899 3.492
a 6844 6847 4.8103
a 6844 11841 21.3352
a 6844 10777 84.3394
a 6844 9899 7.614
a 6845 1222 9.3139
a 6845 6850 4.9594
a 6845 9894 5.1084
a 6845 13009 4.3949
a 6846 9894 0.7186
a 6846 9895 1.8504
a 6846 10779 3.2494
a 6847 6844 4.8103
a 6848 10777 1.206
a 6848 6849 5.1941
a 6848 11754 4.6706
a 6849 9893 0.7826
a 6849 8391 6.6946
a 6849 6848 5.1941
a 6850 6845 4.9594
a 6850 12025 3.6922
a 6850 9893 3.2962
a 6851 13009 1.6049
a 6851 13504 67.149
a 6851 6852 2.3638
a 6852 6851 62.3406
a 6853 12499 13.7246
a 6854 8400 1.9742
a 6855 8391 10.5681
a 6855 8389 1.566
a 6855 11458 5.7564
a 6856 6857 0.9907
a 6857 11679 1.386
a 6857 6856 0.9907
a 6857 1224 7.7918
a 6858 8985 3.5194
a 6858 3389 1.9994
a 6858 8984 1.7863
a 6859 8986 16.8119
a 6860 8985 2.659
a 6860 6861 1.9253
a 6860 6862 1.9073
a 6861 6860 1.9253
a 6861 8987 2.6683
a 6861 3360 8.064
a 6862 6860 1.9073
a 6862 11717 1.435
a 6862 8983 2.6503
a 6863 4425 14.827
a 6863 13296 40.0578
a 6863 4542 6.8364
a 6864 4425 8.0136
a 6864 9326 15.4937
a 6864 6866 42.984
a 6865 13296 0.3629
a 6865 9327 63.7712
a 6865 6867 5.3834
a 6866 6864 4.8996
a 6866 10795 40.8653
a 6866 6868 15.0907
a 6867 10808 1.8814
a 6867 6868 11.3544
a 6867 6865 5.3834
a 6868 6867 11.3544
a 6868 6866 4.3092
a 6868 10795 2.8087
a 6868 11585 9.5854
a 6869 6614 194.5772
a 6869 6476 1.8187
a 6869 9026 4.3625
a 6870 6875 2.8058
a 6870 6871 6.3252
a 6870 9026 2.718
a 6871 6872 2.0016
a 6871 6870 6.3252
a 6871 11806 2.8951
a 6872 12571 1.4918
a 6872 6871 2.0016
a 6872 6873 3.5302
a 6873 6455 22.1552
a 6873 11403 38.1653
a 6873 9322 64.5797
a 6873 6872 3.5302
a 6874 9322 5.9177
a 6874 9027 19.4687
a 6874 6875 2.3429
a 6875 6870 60.0799
a 6875 6874 2.3429
a 6875 9322 8.0388
a 6876 6492 30.9701
a 6877 1878 4.0982
a 6878 6094 4.1364
a 6878 6110 1.9958
a 6878 6104 2.2414
a 6878 6106 10.6862
a 6879 6112 2.219
a 6879 6113 8.3292
a 6879 6111 70.6693
a 6879 6093 2.7317
a 6880 12039 9.6214
a 6880 2162 12.8902
a 6881 6984 2.5963
a 6881 9349 1.2427
a 6881 4774 2.5546
a 6882 1908 3.6792
a 6882 7290 16.1618
a 6883 4434 2.3861
a 6883 9333 1.4357
a 6883 4412 4.4978
a 6884 6412 4.9716
a 6884 6412 10.9742
a 6884 6504 3.0074
a 6885 5332 119.0454
a 6885 5326 6.647
a 6886 6176 2.3242
a 6886 5477 21.5662
a 6886 5680 6.012
a 6886 5569 3.9614
a 6887 5552 1.0584
a 6887 5465 3.9442
a 6887 5454 2.5999
a 6887 10192 5.3626
a 6888 4180 3.1745
a 6888 6580 3.8232
a 6888 6645 16.7623
a 6889 7332 9.5832
a 6890 9351 10.4928
a 6890 822 353.9206
a 6891 8738 0.6638
a 6891 4635 689.4923
a 6892 8735 0.5731
a 6893 4146 4.9046
a 6893 6894 4.3034
a 6893 8711 6.8062
a 6894 12987 0.527
a 6894 6893 4.3034
a 6894 8534 4.6937
a 6896 6897 2.2644
a 6896 6901 2.2586
a 6896 6901 268.9888
a 6897 6900 2.6194
a 6897 6900 10.5624
a 6897 6900 323.8587
a 6897 6896 2.2644
a 6898 6903 2.6597
a 6898 6899 7.9063
a 6898 6899 3.2062
a 6899 6898 9.2426
a 6899 6898 7.9063
a 6899 7380 2.4012
a 6900 6897 2.6194
a 6900 6897 10.5624
a 6900 6897 11.4322
a 6900 7380 2.2478
a 6901 6896 2.2586
a 6901 6896 89.6222
a 6901 12952 7.7484
a 6902 10651 5.1682
a 6902 10654 2.4012
a 6902 10649 1.8331
a 6903 7377 2.4905
a 6903 7377 9.9626
a 6903 6898 2.6597
a 6904 10651 2.6626
a 6904 10648 2.2745
a 6904 7376 4.1069
a 6904 10650 6.7687
a 6905 12976 1.6452
a 6905 12974 0.5731
a 6905 9407 21.6778
a 6906 10051 0.8762
a 6906 5342 180.3271
a 6906 6929 3.6158
a 6907 7239 53.0885
a 6908 10051 3.8938
a 6908 10050 5.0573
a 6908 7239 16.7731
a 6910 2351 6.1762
a 6910 9407 5.724
a 6910 2347 20.5106
a 6911 6912 2.4977
a 6912 6911 2.4977
a 6912 12973 0.4082
a 6912 2354 15.4915
a 6912 6926 5.3633
a 6913 2354 2.5474
a 6914 11630 8.131
a 6914 3154 8.4902
a 6915 4152 1.0382
a 6915 4838 21.51
a 6916 10092 1.5062
a 6917 6918 1.7842
a 6917 6916 23.5138
a 6918 10941 0.6466
a 6918 12458 2.5855
a 6919 10941 193.6895
a 6919 6957 5.6311
a 6920 9931 2.6921
a 6920 6952 3.541
a 6921 9677 17.7182
a 6921 3180 8.0863
a 6921 11311 3.1428
a 6922 8914 17.2354
a 6922 8521 8.5824
a 6923 9604 19.8583
a 6924 9576 23.4152
a 6925 9499 14.814
a 6926 9407 60.6592
a 6926 7886 1.0109
a 6926 6912 5.3633
a 6927 4528 4.2595
a 6927 12048 1.2442
a 6927 9406 14.886
a 6927 4372 220.4136
a 6928 7887 28.2382
a 6928 6946 4.6627
a 6928 2354 6.0509
a 6929 7235 3.546
a 6929 6930 6.4872
a 6929 6906 3.6158
a 6930 6929 6.4872
a 6930 6931 11.8894
a 6930 3521 13.5007
a 6931 8760 2.2932
a 6931 6932 3.2702
a 6931 6930 11.8894
a 6932 7421 2.7151
a 6932 6931 3.2702
a 6932 11854 9.1123
a 6933 6938 3.695
a 6933 4808 14.5397
a 6933 6943 3.3732
a 6934 7423 5.1186
a 6934 11687 6.1704
a 6934 6942 1.9066
a 6935 7423 6.7672
a 6935 6942 1.1376
a 6935 7187 65.4235
a 6936 6943 0.9979
a 6936 8441 3.8218
a 6936 8764 2.9909
a 6937 8768 0.9936
a 6937 4801 6.1574
a 6937 8765 10.4069
a 6938 6933 3.695
a 6938 9320 2.0606
a 6938 7421 15.0718
a 6939 6940 8.6508
a 6939 6940 16.8149
a 6940 8441 3.5262
a 6940 6939 16.8149
a 6940 6943 3.7966
a 6941 7611 265.6069
a 6941 7187 0.7898
a 6941 6942 460.4325
a 6942 6941 390.6957
a 6942 6941 8.7408
a 6942 6935 1.1376
a 6943 6936 0.9979
a 6943 7499 14.8824
a 6943 6933 152.8488
a 6944 8090 4.2761
a 6945 7356 26.622
a 6946 8836 3.6598
a 6946 8714 1.9958
a 6946 6928 4.6627
a 6947 8784 5.3633
a 6947 9505 5.2344
a 6947 13295 9.3593
a 6947 8940 5.8003
a 6948 8941 5.1307
a 6948 9521 13.6145
a 6948 9513 3.0535
a 6949 168 5.2466
a 6949 6950 7.2209
a 6950 6951 40.02
a 6951 7754 1.2758
a 6951 9373 2.6762
a 6952 9655 6.0487
a 6953 11987 104.1673
a 6954 2452 5.3323
a 6955 8549 0.4745
a 6955 6983 4.5806
a 6956 9671 14.2438
a 6957 9676 2.767
a 6958 10942 5.8831
a 6958 6925 6.534
a 6958 12459 5.9796
a 6959 9931 0.6638
a 6959 6917 2.9801
a 6960 13575 65.6849
a 6961 7751 3.9471
a 6962 7596 8.6818
a 6962 7596 225.0284
a 6963 1914 0.9742
a 6963 1886 2.5042
a 6964 6965 1.8295
a 6965 7291 28.9375
a 6965 6964 1.8295
a 6966 6969 71.1577
a 6967 4305 21.0434
a 6968 6970 3.8916
a 6969 6968 6.3965
a 6970 58 11.9909
a 6971 8737 6.7248
a 6971 7632 3.7238
a 6971 4727 10.5019
a 6971 4741 22.9932
a 6972 6993 216.641
a 6972 4776 0.9526
a 6973 4778 14.2272
a 6973 13086 0.5357
a 6974 2441 44.7674
a 6975 6983 0.9785
a 6975 6955 4.685
a 6976 1921 5.3914
a 6977 35 7.6644
a 6977 1917 8.6674
a 6978 1924 3.9247
a 6978 1931 5.2582
a 6978 1930 23.7989
a 6979 12449 0.2138
a 6979 3159 9.7682
a 6979 11803 6.9919
a 6980 11803 1.7382
a 6980 12539 1.8425
a 6980 2962 6.21
a 6981 12218 0.6998
a 6981 2962 2.1478
a 6981 12176 6.6679
a 6982 10060 1.7338
a 6982 7573 7.5809
a 6982 7576 83.7308
a 6982 9878 4.0817
a 6983 9348 10.3968
a 6984 7000 12.0384
a 6985 6881 11.0536
a 6985 4774 4.1983
a 6987 8085 10.1527
a 6988 10241 1.7446
a 6988 8087 4.7902
a 6989 7841 5.5296
a 6990 6991 0.7214
a 6990 7303 4.5864
a 6991 6992 3.0125
a 6992 6993 0.7164
a 6992 4776 5.9342
a 6993 6992 0.7164
a 6993 6990 29.0961
a 6994 2356 4.6087
a 6994 9944 4.4748
a 6994 12986 2.4611
a 6995 5026 84.4933
a 6995 4150 2.268
a 6995 6996 183.4487
a 6996 4332 4.8845
a 6996 13280 4.0378
a 6996 6995 691.3106
a 6997 41 1.5962
a 6997 10824 31.0939
a 6997 11973 2.4516
a 6998 25 5.4238
a 6998 728 7.8754
a 6999 10111 3.2062
a 7000 6882 25.3116
a 7000 7001 16.1528
a 7001 7000 1.2485
a 7001 9349 14.6902
a 7002 7004 2.9779
a 7002 6273 12.4639
a 7002 7003 345.486
a 7003 6274 2.4754
a 7003 7002 7.9049
a 7003 7005 2.8584
a 7004 7002 2.9779
a 7004 10254 2.8829
a 7004 7005 7.6291
a 7005 7006 2.9297
a 7005 7004 7.6291
a 7005 7003 2.8584
a 7006 6275 2.6885
a 7006 7005 2.9297
a 7006 10254 6.6348
a 7007 5409 6.336
a 7007 5409 12.3113
a 7007 8333 4.1717
a 7008 12267 18.2218
a 7008 5408 10.3435
a 7009 10517 2.165
a 7009 4492 3.0262
a 7009 10797 3.1291
a 7010 12729 0.7668
a 7010 7011 4.9133
a 7010 10519 355.4106
a 7011 10519 2.1823
a 7011 7012 2.4415
a 7011 10517 2.394
a 7011 7010 4.9133
a 7012 7011 2.4415
a 7012 2527 6.9214
a 7012 4525 45.675
a 7013 2349 5.0774
a 7013 2345 617.5412
a 7013 2351 5.0242
a 7014 815 1.7381
a 7014 835 19.2074
a 7014 4809 4.7606
a 7015 8142 23.8464
a 7015 7273 48.487
a 7016 7021 9.5846
a 7016 7042 3.4222
a 7016 7045 5.3179
a 7017 9808 7.0481
a 7017 7041 3.7015
a 7017 892 13.1861
a 7018 1805 6.3907
a 7018 2592 3.9715
a 7018 2588 3.2076
a 7019 7025 5.2286
a 7019 7035 8.2411
a 7019 7033 9.7416
a 7020 7030 1.7971
a 7020 2248 2.3522
a 7020 7039 6.1754
a 7021 1801 9.909
a 7021 1800 5.4662
a 7021 7016 9.5846
a 7022 9658 3.9139
a 7022 7024 3.3538
a 7022 9659 7.9186
a 7023 7042 3.7008
a 7023 7040 1.6776
a 7024 2630 3.7058
a 7024 7022 3.3538
a 7024 9659 5.2438
a 7024 8516 12.8038
a 7025 2776 3.8678
a 7025 2104 11.6424
a 7025 7019 5.2286
a 7026 7038 3.1838
a 7026 7039 234.2159
a 7026 2248 7.9812
a 7027 2107 6.4613
a 7027 9666 13.68
a 7028 2870 10.0325
a 7028 3168 3.7951
a 7028 11128 169.0359
a 7029 2105 3.5892
a 7029 11978 12.6626
a 7030 2255 3.0593
a 7030 7020 1.7971
a 7030 7039 5.6506
a 7031 7041 3.6742
a 7031 2105 6.4886
a 7031 886 6.259
a 7031 7044 9.4032
a 7032 4327 5.7326
a 7032 4328 5.2661
a 7032 4312 4.6462
a 7033 2106 3.6187
a 7033 7035 3.6576
a 7033 7019 48.8651
a 7034 2105 9.3852
a 7034 2106 3.5503
a 7034 7044 6.4274
a 7035 7033 3.6576
a 7035 2104 3.8621
a 7035 7019 204.6796
a 7036 8516 9.774
a 7036 9659 13.3762
a 7037 1800 1.5329
a 7037 7023 12.1349
a 7038 2254 5.2366
a 7038 2262 5.2841
a 7038 7026 3.1838
a 7039 7020 6.1754
a 7039 7030 5.6506
a 7039 7026 4.8866
a 7040 2098 10.5264
a 7040 7023 1.6776
a 7040 8993 3.7843
a 7041 7017 3.7015
a 7041 7031 3.6742
a 7041 889 9.6984
a 7042 7023 3.7008
a 7042 7016 3.4222
a 7042 7037 9.1771
a 7043 2737 20.6699
a 7043 3874 17.9762
a 7043 2741 17.8142
a 7044 7034 6.4274
a 7044 7031 9.4032
a 7044 858 3.6576
a 7045 7016 5.3179
a 7045 2098 3.7397
a 7045 2096 7.1654
a 7046 2285 5.1185
a 7046 2283 5.4216
a 7046 13186 258.5954
a 7047 7048 14.5354
a 7047 9455 12.0874
a 7048 12757 0.2009
a 7048 7047 14.5354
a 7048 9597 30.4603
a 7049 7053 2.947
a 7049 4138 3.2861
a 7049 7052 5.3345
a 7050 7051 3.5309
a 7050 11217 4.3063
a 7050 4139 3.7764
a 7051 7050 3.5309
a 7051 7052 3.8988
a 7051 11217 2.4725
a 7052 7051 127.6443
a 7052 7053 2.6813
a 7052 7049 5.3345
a 7053 7049 2.947
a 7053 12645 0.1274
a 7053 7052 2.6813
a 7054 9611 1.422
a 7054 5323 6.3374
a 7054 7343 5.6484
a 7055 2617 5.0234
a 7055 7056 4.0162
a 7056 2619 4.5569
a 7057 7059 27.039
a 7057 11058 2.3033
a 7058 2620 6.7831
a 7058 7059 11.561
a 7058 2621 4.8996
a 7059 7057 6.4015
a 7059 7058 11.561
a 7059 7060 4.3049
a 7060 7055 6.1769
a 7060 7059 4.3049
a 7061 7062 4.5626
a 7061 12301 0.99
a 7061 12605 17.7829
a 7061 2147 4.0529
a 7062 2151 1.0123
a 7062 7061 209.4061
a 7062 2148 27.0612
a 7063 10288 8.7156
a 7063 3857 2.6719
a 7064 13200 0.5033
a 7064 3857 2.1557
a 7064 12088 46.0609
a 7065 10280 0.6257
a 7065 4307 29.1564
a 7065 7390 1.625
a 7066 4511 0.8935
a 7066 4542 8.4211
a 7066 9327 30.8412
a 7067 7068 51.4774
a 7067 8435 6.7622
a 7067 6755 14.1336
a 7068 7069 7.0214
a 7068 7067 3.667
a 7068 6756 13.4734
a 7069 9274 3.4337
a 7069 7068 7.0214
a 7069 10772 9.2189
a 7070 9276 0.6106
a 7070 9274 1.805
a 7070 12711 7.6457
a 7071 7072 5.3395
a 7071 6642 7.4786
a 7071 12938 10.6805
a 7072 6465 4.5029
a 7072 6430 3.8218
a 7072 7071 5.3395
a 7072 6553 8.5068
a 7073 7074 2.9254
a 7074 7073 2.9254
a 7074 5008 5.9803
a 7074 7075 6.7702
a 7075 5008 12.2839
a 7075 6410 18.7366
a 7075 7074 240.8962
a 7076 6372 2.1096
a 7076 7077 12.9233
a 7076 7081 1.8943
a 7076 10658 9.085
a 7077 7076 12.9233
a 7077 7078 2.9174
a 7077 10660 2.6719
a 7078 7077 2.9174
a 7078 8459 3.4546
a 7078 7081 10.0656
a 7079 6393 1.9606
a 7079 7083 1.9231
a 7079 7080 4.4244
a 7079 7084 76.8684
a 7080 7079 4.4244
a 7081 7083 4.0241
a 7081 7076 1.8943
a 7081 7078 10.0656
a 7081 7082 6.5232
a 7082 7081 6.5232
a 7083 7079 1.9231
a 7083 7085 3.8268
a 7083 7081 4.0241
a 7083 7084 5.2855
a 7084 8459 1.2082
a 7084 7083 5.2855
a 7084 7079 5.1379
a 7085 7083 3.8268
a 7086 9291 11.1842
a 7086 7087 3.253
a 7086 7088 13.4712
a 7087 7086 3.253
a 7087 9081 2.2522
a 7087 7089 15.264
a 7088 6415 1.9634
a 7088 7089 2.0722
a 7088 7086 13.4712
a 7089 6372 110.6711
a 7089 7088 2.0722
a 7089 7087 15.264
a 7090 6393 2.0412
a 7091 8468 8.3866
a 7091 6393 7.5722
a 7091 8477 22.2574
a 7092 11268 4.8914
a 7092 8330 4.1774
a 7092 11267 15.6506
a 7093 7561 1.836
a 7093 6373 25.4506
a 7093 3712 238.7082
a 7093 11927 1.6085
a 7094 3781 3.6014
a 7094 9111 11.9916
a 7094 9747 8.3959
a 7095 7096 10.453
a 7095 12416 13.9471
a 7095 13195 125.4137
a 7096 7097 2.0945
a 7096 7095 10.453
a 7096 7098 3.0002
a 7097 7096 2.0945
a 7097 13191 0.7416
a 7097 7316 12.3314
a 7098 7096 3.0002
a 7098 7828 9.0043
a 7098 7828 11.2651
a 7099 7100 17.9885
a 7099 1750 8.4816
a 7099 1761 5.1811
a 7100 7099 17.9885
a 7100 1761 176.9065
a 7100 1769 5.3518
a 7101 2420 30.1198
a 7101 7102 55.3384
a 7101 2419 4.3668
a 7102 2421 23.1098
a 7102 2425 36.6408
a 7102 7101 5.1674
a 7103 3031 6.1848
a 7104 8180 3.4798
a 7105 5397 3.9082
a 7105 2078 15.0977
a 7105 8180 4.6145
a 7106 9930 2.0563
a 7106 10940 97.9383
a 7107 1322 35.6875
a 7107 4358 17.7286
a 7108 1307 116.4454
a 7108 1309 3.1414
a 7108 1311 85.1288
a 7109 7172 11.412
a 7109 5917 40.3407
a 7109 8323 11.2481
a 7110 9459 40.595
a 7110 10441 5.8615
a 7110 7564 7.5946
a 7111 411 7.4117
a 7111 11049 1.0642
a 7112 7151 2.5949
a 7112 7150 2.0009
a 7112 7114 3.667
a 7113 7120 2.111
a 7113 7115 11.5452
a 7113 7135 42.8922
a 7114 7112 8.8268
a 7114 7152 3.6634
a 7114 7122 2.327
a 7115 7113 11.5452
a 7115 7131 2.1103
a 7115 7134 1.913
a 7116 7120 27.0752
a 7116 7117 5.994
a 7116 7119 7.3627
a 7117 7119 1.8598
a 7117 7121 1.962
a 7117 7116 5.994
a 7117 7118 10.6582
a 7118 7122 1.9908
a 7118 7117 10.6582
a 7118 7119 11.3112
a 7119 7117 1.8598
a 7119 7118 11.3112
a 7119 6326 1.5422
a 7119 7116 388.0328
a 7120 7116 2.0081
a 7120 7113 2.111
a 7120 7121 6.5549
a 7121 7117 1.962
a 7121 11894 23.9867
a 7121 7120 6.5549
a 7121 7122 49.6934
a 7122 7118 19.1411
a 7122 7121 12.1399
a 7122 7114 2.327
a 7123 7146 83.587
a 7123 11894 1.2089
a 7123 7139 2.8138
a 7124 7144 1.9973
a 7124 7145 2.0822
a 7124 7125 9.9216
a 7125 7124 9.9216
a 7125 7128 6.5284
a 7125 7129 1.5358
a 7126 7154 23.4062
a 7126 10410 1.9915
a 7126 7149 1.9994
a 7126 7127 4.4266
a 7127 10409 21.1904
a 7127 7126 4.4266
a 7127 7153 3.217
a 7128 7125 111.6734
a 7128 7144 9.6984
a 7128 7142 2.3321
a 7129 7136 86.544
a 7129 7125 1.5358
a 7129 7130 2.0642
a 7130 7131 5.3791
a 7130 7129 2.0642
a 7130 7132 103.6339
a 7131 7115 2.1103
a 7131 7133 2.083
a 7131 7130 5.3791
a 7132 7133 40.5559
a 7132 7133 578.5034
a 7132 7130 2.2522
a 7133 7131 8.5775
a 7133 7132 4.2257
a 7133 7132 17.5076
a 7134 7115 6.6838
a 7134 7136 2.1226
a 7134 7135 372.0598
a 7135 7137 1.939
a 7135 7113 1.9728
a 7135 7134 12.4978
a 7136 7134 2.1226
a 7136 7129 2.3292
a 7136 7137 13.5612
a 7137 11895 2.1586
a 7137 7135 1.939
a 7137 7136 13.5612
a 7138 11895 4.4338
a 7138 7140 32.5844
a 7138 7139 4.9586
a 7139 7141 1.8706
a 7139 7123 34.6644
a 7139 7138 4.9586
a 7140 7138 2.6863
a 7140 7142 148.9547
a 7140 7141 6.6564
a 7141 7143 1.913
a 7141 7139 1.8706
a 7141 7140 6.6564
a 7142 7140 2.5639
a 7142 7143 8.3174
a 7142 7128 2.3321
a 7143 7144 1.9246
a 7143 7141 1.913
a 7143 7142 8.3174
a 7144 7124 1.9973
a 7144 7143 1.9246
a 7144 7128 9.6984
a 7145 7148 1.8943
a 7145 7124 2.0822
a 7145 7146 9.4982
a 7146 7147 5.5417
a 7146 7123 89.0097
a 7146 7145 9.4982
a 7147 7150 2.003
a 7147 7146 1.9181
a 7147 7148 189.6492
a 7148 7149 1.8943
a 7148 7145 1.8943
a 7148 7147 8.7516
a 7149 7126 1.9994
a 7149 7148 1.8943
a 7149 7150 8.0424
a 7150 7112 2.0009
a 7150 7147 2.003
a 7150 7149 30.919
a 7151 7112 2.5949
a 7151 7154 2.641
a 7151 7152 3.7944
a 7152 7151 3.7944
a 7152 7153 2.4286
a 7152 7114 3.6634
a 7153 7152 2.4286
a 7153 7154 3.631
a 7153 7127 3.217
a 7154 7151 12.8392
a 7154 7126 2.4026
a 7154 7153 3.631
a 7155 7156 4.4316
a 7156 7157 27.0778
a 7156 411 374.4399
a 7156 7155 178.8829
a 7157 12366 2.4881
a 7157 6355 7.3822
a 7157 7156 27.0778
a 7158 6343 11.4358
a 7159 6347 4.212
a 7159 6348 8.1886
a 7159 11584 119.4452
a 7160 692 25.2274
a 7161 8074 8.4398
a 7161 548 2.0995
a 7161 7163 3.2141
a 7162 8080 8.365
a 7162 7163 2.9088
a 7163 7162 2.9088
a 7163 7161 3.2141
a 7163 8075 8.4362
a 7164 1243 3.078
a 7164 8075 8.6069
a 7164 1244 3.0845
a 7165 13036 0.7481
a 7165 7166 4.279
a 7166 7167 9.3881
a 7166 543 13.5418
a 7167 547 6.8846
a 7167 7166 9.3881
a 7167 7168 4.3517
a 7168 13037 0.8266
a 7168 7165 6.5506
a 7169 546 5.8378
a 7169 1248 4.9421
a 7170 11568 0.9137
a 7170 7269 13.6908
a 7170 10830 2.4113
a 7171 5889 72.206
a 7171 9767 19.3471
a 7171 10834 10.9836
a 7172 5895 16.239
a 7172 7109 11.412
a 7172 5896 3.8174
a 7173 5908 260.6206
a 7173 5919 3.5712
a 7173 5888 4.9946
a 7174 9774 1.0008
a 7175 4196 6.673
a 7175 11499 0.6768
a 7175 9778 6.385
a 7176 10845 5.9479
a 7176 5881 28.0951
a 7176 7177 7.2698
a 7177 7179 3.8066
a 7177 7178 10.1844
a 7177 7176 7.2698
a 7178 12021 2.286
a 7178 7177 10.1844
a 7178 7179 39.316
a 7179 7177 3.8066
a 7179 7180 2.4264
a 7179 7178 13.2257
a 7180 10843 9.9085
a 7180 7179 2.4264
a 7180 9464 41.2956
a 7181 7182 5.2085
a 7181 7185 243.4329
a 7181 13102 13.927
a 7182 6360 31.5152
a 7182 7181 5.2085
a 7182 7183 1343.2914
a 7183 7185 9.1505
a 7183 7184 4.5166
a 7183 7182 18.1123
a 7184 7183 4.5166
a 7185 7183 9.1505
a 7185 7181 8.1835
a 7185 8747 9.6703
a 7186 8454 21.5582
a 7186 2072 7.2907
a 7186 11889 5.112
a 7187 6941 0.7898
a 7187 6935 8.4622
a 7187 6935 17.113
a 7188 7192 12.053
a 7188 10252 1.1448
a 7188 10253 1.4789
a 7189 7191 2.4732
a 7189 7919 4.9975
a 7190 7192 2.5654
a 7190 7919 2.6806
a 7190 7191 3.911
a 7191 7189 2.4732
a 7191 10253 3.6979
a 7191 7190 3.911
a 7192 7188 1.0951
a 7192 10253 1.6812
a 7192 7190 2.5654
a 7193 5393 112.3994
a 7193 8182 3.3314
a 7193 8183 296.6267
a 7193 5389 17.6126
a 7194 13129 0.6962
a 7194 4233 9.2513
a 7194 4232 16.3368
a 7195 7197 1.9591
a 7195 5947 3.2465
a 7195 5965 3.1039
a 7196 5966 2.6957
a 7196 5947 3.8722
a 7196 7197 6.3022
a 7197 7195 1.9591
a 7197 5942 54.7726
a 7197 7196 6.3022
a 7198 6375 4.7527
a 7198 12635 3.0341
a 7198 7199 3.4891
a 7198 7200 82.6551
a 7199 12035 12.7569
a 7199 7200 11.0794
a 7199 7198 124.9522
a 7200 7199 11.0794
a 7200 7198 17.4168
a 7200 11800 4.6872
a 7201 10996 0.5875
a 7201 12550 15.3842
a 7202 7461 4.9327
a 7203 8357 2.0686
a 7204 7208 4.5158
a 7204 5978 11.3998
a 7204 7205 5.004
a 7205 3307 19.6481
a 7205 7206 3.8815
a 7205 7204 160.6268
a 7206 11009 3.4805
a 7206 7205 3.8815
a 7206 7207 10.0706
a 7207 8357 1.7352
a 7207 5978 4.9838
a 7207 7206 295.3509
a 7208 12254 6.3158
a 7208 7204 50.9415
a 7208 7209 22.5698
a 7208 4189 4.9018
a 7209 7210 2.6921
a 7209 7208 22.5698
a 7209 7479 10.2564
a 7210 869 31.4083
a 7210 7209 2.6921
a 7211 9783 0.8143
a 7211 12101 1.6538
a 7211 870 3.5899
a 7212 7213 2.3443
a 7212 7223 7.848
a 7212 7605 690.435
a 7213 7212 6.0826
a 7213 7228 6.8659
a 7213 7214 3.3574
a 7214 7225 7.6226
a 7214 7218 4.716
a 7214 7213 3.3574
a 7215 7221 3.3754
a 7215 7218 1.8878
a 7215 7216 79.0777
a 7216 7222 4.0226
a 7216 7215 9.2282
a 7216 7219 4.6627
a 7217 9109 4.4208
a 7217 7224 2.9318
a 7218 7219 12.5496
a 7218 7215 1.8878
a 7218 7214 4.716
a 7219 7224 3.0859
a 7219 7220 8.6609
a 7219 7218 12.5496
a 7219 7216 142.5911
a 7220 7219 8.6609
a 7220 12229 17.4406
a 7221 7222 9.5364
a 7221 7222 6.2518
a 7221 7215 3.3754
a 7222 7216 9.5217
a 7222 7221 9.5364
a 7222 7221 6.2518
a 7223 13243 3.4229
a 7223 7212 7.848
a 7223 7473 6.1042
a 7224 7473 4.5418
a 7224 7219 3.0859
a 7224 9109 3.4438
a 7224 7217 2.9318
a 7225 7214 7.6226
a 7226 7230 3.8534
a 7226 9541 2.3011
a 7227 7230 149.4343
a 7228 9543 3.2278
a 7228 7213 6.8659
a 7228 9541 7.2029
a 7229 9542 1.2866
a 7229 9541 2.785
a 7229 9543 5.8349
a 7230 7227 3.3847
a 7230 7226 3.8534
a 7231 905 104.1708
a 7231 10001 8.3261
a 7231 8447 10.4242
a 7232 904 19.1077
a 7232 8447 4.0925
a 7232 9200 17.9784
a 7233 2294 10.2806
a 7234 7235 7.9848
a 7235 7234 29.7294
a 7235 6929 9.5905
a 7235 7236 9.373
a 7236 10051 6.0278
a 7236 5346 1.9937
a 7236 7235 9.373
a 7237 3521 8.3966
a 7237 3494 9.9742
a 7237 7238 3.9046
a 7238 7239 1.9958
a 7238 3521 9.0677
a 7238 7237 96.8898
a 7239 7238 1.9958
a 7239 6908 16.7731
a 7239 6907 4.9918
a 7240 9487 3.3091
a 7241 1229 7.1849
a 7242 9487 6.9826
a 7242 1228 2.9974
a 7242 1227 4.7498
a 7243 527 7.5679
a 7244 557 5.7888
a 7244 7541 59.3435
a 7244 7245 19.003
a 7245 7549 4.824
a 7245 7246 21.2816
a 7246 7541 3.1018
a 7246 7554 4.8305
a 7246 7245 8.5939
a 7247 1233 4.3366
a 7247 1234 147.5351
a 7247 1236 4.3956
a 7248 7250 5.4972
a 7248 2446 9.7747
a 7248 7363 2.3292
a 7249 7251 3.762
a 7250 7248 5.4972
a 7251 1328 7.6954
a 7251 7249 3.762
a 7252 1324 2.0484
a 7252 7252 5.1466
a 7252 7252 5.1466
a 7253 12154 5.089
a 7253 1327 4.4057
a 7253 1326 13.037
a 7254 13057 33.515
a 7254 7707 124.9607
a 7255 7612 1.1318
a 7255 8509 1.2751
a 7255 2917 10.4738
a 7256 10643 3.2162
a 7256 7257 9.1462
a 7256 5069 2.7043
a 7257 7256 9.1462
a 7257 5081 2.9203
a 7257 5067 2.5934
a 7258 9067 4.1882
a 7259 7358 449.5013
a 7259 2428 33.4642
a 7260 1496 1.5638
a 7260 1502 16.9567
a 7261 897 12.3545
a 7261 7263 22.6253
a 7261 2049 5.8356
a 7262 8664 1.4371
a 7263 8317 6.4498
a 7263 956 10.3183
a 7263 7261 22.6253
a 7263 925 12.4891
a 7264 4141 7.609
a 7264 8634 3.096
a 7264 5231 202.9373
a 7265 7509 150.1939
a 7265 1067 2.2601
a 7266 7525 0.6854
a 7266 7721 16.8617
a 7267 9304 0.7769
a 7267 9303 2.2356
a 7267 9299 20.5254
a 7268 11428 0.8338
a 7268 7597 7.7112
a 7268 11455 681.3753
a 7269 7603 102.3705
a 7269 7170 13.6908
a 7269 7600 15.8134
a 7270 8424 5.9054
a 7270 2429 13.0658
a 7271 7671 2.6352
a 7271 9074 9.6768
a 7272 7273 4.428
a 7272 8140 23.7384
a 7273 8141 23.7917
a 7273 7272 4.428
a 7273 7015 4.4878
a 7274 11203 0.7178
a 7274 9740 11.2392
a 7275 8609 6.5347
a 7276 8365 85.1891
a 7277 7278 1.5566
a 7277 12328 2.003
a 7278 7279 10.3774
a 7279 9440 3.7548
a 7279 6986 21.911
a 7280 1859 3.2868
a 7280 7281 3.4409
a 7281 6962 3.0816
a 7283 7280 3.1457
a 7284 6999 9.9029
a 7284 8967 22.1054
a 7285 215 0.7322
a 7285 9371 2.0995
a 7285 241 74.0913
a 7286 10857 1.2218
a 7286 13365 0.4392
a 7287 5244 7.5946
a 7287 13421 40.6144
a 7288 10100 1.2089
a 7288 10098 34.3571
a 7289 7001 44.3153
a 7291 11080 0.4723
a 7291 13062 2.0542
a 7292 2011 4.505
a 7292 9706 7.9798
a 7293 1826 5.5894
a 7293 7853 5.1358
a 7293 1828 13.7628
a 7294 7295 0.9713
a 7294 7317 29.7532
a 7295 7294 0.9713
a 7296 12228 0.6127
a 7296 7772 1.0238
a 7296 11144 11.0837
a 7297 7855 4.2545
a 7297 1014 2.5934
a 7297 2032 11.6071
a 7297 7854 3.5381
a 7298 8651 8.7062
a 7299 7301 74.1403
a 7300 8651 1.1045
a 7300 12450 1.8742
a 7300 8726 0.6084
a 7301 8727 0.4435
a 7301 7299 3.0082
a 7301 8651 9.4723
a 7302 5550 2.8642
a 7303 11955 1.2161
a 7303 8034 13.6238
a 7304 144 7.285
a 7305 1503 18.2268
a 7305 8517 46.1549
a 7306 1999 19.4118
a 7306 1941 1.129
a 7307 12119 1.4702
a 7308 1846 1.4738
a 7309 1847 5.4842
a 7309 7310 5.0162
a 7309 1848 11.9131
a 7310 7309 5.0162
a 7310 7310 12.708
a 7310 7310 12.708
a 7311 7311 11.9599
a 7311 7311 263.2455
a 7311 1848 117.7688
a 7312 1849 4.055
a 7312 7312 10.2247
a 7312 7312 10.2247
a 7313 1864 3.5957
a 7314 7847 79.5917
a 7314 9338 9.437
a 7315 7265 6.1927
a 7315 7313 81.4414
a 7316 13362 0.6437
a 7316 7097 12.3314
a 7316 7317 3.1154
a 7317 7294 3.6871
a 7317 7316 15.662
a 7318 7319 3.875
a 7319 7318 3.875
a 7319 7469 7.8902
a 7319 2438 15.691
a 7320 7322 3.546
a 7320 6646 21.0814
a 7320 10659 56.4528
a 7321 10659 9.3938
a 7321 7323 3.7656
a 7321 9291 124.7746
a 7322 6577 3.2256
a 7322 7320 3.546
a 7322 7323 13.5331
a 7323 6415 3.4697
a 7323 7321 3.7656
a 7323 7322 89.8427
a 7324 9046 3.8477
a 7324 6480 3.7555
a 7324 6659 8.015
a 7325 3633 4.6152
a 7326 9710 0.6048
a 7326 3204 6.6384
a 7326 10948 16.4124
a 7326 9665 2.5762
a 7327 9466 6.48
a 7327 9711 2.0729
a 7327 10948 7.1057
a 7328 188 0.8698
a 7328 199 11.3789
a 7328 7398 3.6446
a 7329 2012 5.3604
a 7329 7330 6.1394
a 7329 2013 12.5158
a 7330 7329 6.1394
a 7330 7330 16.7141
a 7330 7330 16.7141
a 7331 2013 1.795
a 7332 9698 16.5852
a 7332 7333 1.2794
a 7333 7332 1.2794
a 7334 7337 0.8316
a 7334 8095 142.9655
a 7335 7742 6.2978
a 7335 420 5.0371
a 7335 418 15.8666
a 7336 251 2.7115
a 7336 472 4.4122
a 7336 3028 306.7493
a 7336 471 20.0016
a 7337 7334 0.8316
a 7337 11047 24.2518
a 7338 7339 3.5719
a 7338 7340 5.6902
a 7338 3935 7.6003
a 7339 7338 3.5719
a 7339 3089 3.87
a 7339 7340 8.1446
a 7340 7338 5.6902
a 7340 7339 183.6575
a 7340 2994 12.5208
a 7341 12437 14.2402
a 7341 7342 34.1856
a 7342 7455 5.562
a 7343 7054 5.6484
a 7343 4137 6.4051
a 7343 5323 69.9997
a 7344 384 8.5118
a 7344 10019 6.0934
a 7344 13458 1.3277
a 7345 12252 11.8411
a 7345 10822 11.934
a 7346 511 7.5982
a 7346 7768 274.4154
a 7346 275 3.8009
a 7346 360 19.1952
a 7347 469 0.882
a 7347 12829 1.2211
a 7348 10917 10.6668
a 7349 3822 13.8571
a 7349 4027 15.3806
a 7350 8518 97.1595
a 7350 7960 4.2221
a 7350 7351 7.9992
a 7351 8672 6.4534
a 7351 7350 7.9992
a 7351 13177 3.335
a 7352 2302 126.3939
a 7352 9988 14.6146
a 7352 8582 14.737
a 7353 7623 1.1369
a 7353 12257 1.8821
a 7353 10916 22.4309
a 7354 12816 0.7286
a 7354 3304 10.9066
a 7354 12817 2.8152
a 7355 3796 2.6114
a 7356 6945 1203.0864
a 7356 8086 9.7034
a 7356 8085 1.2593
a 7357 683 3.5539
a 7358 2906 11.3126
a 7358 3117 2.7274
a 7359 5394 207.6897
a 7359 11712 370.3225
a 7359 1314 4.2746
a 7360 10391 2.255
a 7360 7361 2.016
a 7360 11629 0.193
a 7361 7360 2.016
a 7361 10392 5.3554
a 7361 13229 4.2026
a 7362 2141 3.8218
a 7362 2118 6.7723
a 7362 2123 68.7919
a 7363 1328 7.6838
a 7363 8777 4.2242
a 7363 7248 2.3292
a 7364 1324 13.7261
a 7364 1323 22.009
a 7364 2001 22.8601
a 7365 4779 15.516
a 7365 73 3.1111
a 7366 7374 2.2925
a 7366 7367 8.0191
a 7366 12343 16.0265
a 7367 7366 3.1536
a 7367 6717 11.3803
a 7367 9143 8.2879
a 7368 12776 1.1023
a 7368 12777 11.6352
a 7368 6540 10.4609
a 7369 6656 3.0571
a 7369 10633 2.5106
a 7369 6697 9.2729
a 7370 6547 12.2969
a 7370 4179 3.0946
a 7370 6532 3.8318
a 7371 7372 6.2078
a 7372 6423 11.4214
a 7372 7371 6.2078
a 7372 6508 2.8318
a 7373 9593 7.4585
a 7373 10737 135.6775
a 7373 9290 6.1517
a 7374 7366 65.5792
a 7374 9025 7.9034
a 7374 9025 3.3833
a 7375 7380 33.238
a 7376 12952 1.5127
a 7376 6904 4.1069
a 7376 10648 7.9538
a 7377 6903 2.4905
a 7377 6903 9.9626
a 7377 10341 208.2963
a 7378 10647 2.3393
a 7378 10647 8.928
a 7378 10647 8.3462
a 7378 12953 1.6186
a 7379 10652 2.5832
a 7379 10654 3.9859
a 7379 10649 17.8483
a 7380 6899 2.4012
a 7380 6900 2.2478
a 7380 12953 15.4685
a 7380 7375 151.7556
a 7381 12702 5.3285
a 7381 8465 3.5222
a 7381 8470 1.8194
a 7382 10342 4.0414
a 7383 12701 6.2731
a 7383 8470 1.8259
a 7383 8482 175.4652
a 7384 1281 2.97
a 7384 522 3.1795
a 7385 753 28.1556
a 7386 8097 6.269
a 7387 9259 1.5962
a 7387 8403 1.5955
a 7387 12005 8.1346
a 7388 8403 6.0617
a 7388 9261 3.4502
a 7388 9907 7.4038
a 7389 11523 3.001
a 7389 6794 11.3069
a 7390 7065 1.625
a 7391 218 5.2222
a 7391 221 17.3822
a 7391 222 27.342
a 7391 11079 5.4799
a 7392 6399 6.637
a 7392 6468 6.9408
a 7392 12685 3.2738
a 7393 11028 49.0723
a 7394 7395 27.7046
a 7394 7748 21.5964
a 7394 2573 0.9475
a 7395 7394 5.8565
a 7395 2589 10.6337
a 7395 9939 19.2545
a 7396 162 8.1144
a 7396 8254 11.9534
a 7396 10856 10.1542
a 7396 9491 8.8164
a 7397 199 3.6223
a 7397 198 3.3329
a 7398 7397 115.2253
a 7398 7328 3.6446
a 7398 112 2.0534
a 7399 13610 29.1139
a 7399 123 6.0552
a 7400 2121 14.9062
a 7400 2115 7.9769
a 7401 7606 9.5789
a 7402 7403 9.4313
a 7402 3918 8.6998
a 7403 3632 1.6819
a 7403 9115 14.0018
a 7404 8833 0.949
a 7404 2723 14.8356
a 7404 11970 10.1657
a 7405 3892 12.1493
a 7405 7406 42.7399
a 7406 2719 8.6825
a 7406 7417 12.2623
a 7407 8832 0.869
a 7407 10924 19.9685
a 7408 11056 1.1239
a 7409 8423 2.4307
a 7409 7410 3.6612
a 7410 7407 10.5307
a 7411 8536 2.4394
a 7411 7412 3.6907
a 7412 3223 15.9797
a 7413 8728 2.3544
a 7413 7414 58.9854
a 7414 11057 12.073
a 7415 8535 3.0276
a 7415 7416 3.816
a 7416 11059 12.767
a 7417 7418 1.319
a 7417 7413 20.0844
a 7418 2721 299.5702
a 7419 40 10.656
a 7420 7569 5.5224
a 7421 4808 15.7751
a 7421 6932 2.7151
a 7421 6938 15.0718
a 7422 7736 231.1438
a 7422 8155 12.1262
a 7423 6934 0.684
a 7423 13537 28.0431
a 7424 44 16.1734
a 7425 4807 5.2726
a 7425 8761 3.7822
a 7425 7426 6.5074
a 7425 7426 21.3091
a 7426 7425 6.5074
a 7426 7425 21.3091
a 7426 8762 12.7994
a 7427 7497 5.251
a 7427 4795 5.1293
a 7427 4800 12.8362
a 7428 8764 15.3173
a 7428 8759 13.2624
a 7428 7611 4.0666
a 7429 4785 70.8875
a 7429 4787 7.7774
a 7429 8770 23.4252
a 7430 4833 15.2705
a 7431 12530 37.8517
a 7431 13019 1.6142
a 7432 624 4.9781
a 7433 9298 18.5623
a 7433 7513 6.9991
a 7434 9653 43.2757
a 7434 13447 20.8116
a 7435 7610 41.3978
a 7435 871 14.4698
a 7435 9653 4.5007
a 7436 8185 28.6193
a 7437 7438 44.6801
a 7437 5933 8.8315
a 7437 10427 6.6017
a 7438 7437 35.3632
a 7438 6043 24.7255
a 7438 8321 254.3993
a 7439 1535 112.7483
a 7439 454 16.7623
a 7439 451 7.717
a 7440 13060 3.6975
a 7440 13061 1.2888
a 7441 1654 6.2438
a 7442 7449 10.6459
a 7442 13205 9.7538
a 7442 7443 12.0564
a 7443 7442 12.0564
a 7443 7448 57.4591
a 7443 7447 5.7355
a 7444 11048 15.291
a 7444 7445 107.4561
a 7444 12587 3.4956
a 7445 7446 17.771
a 7445 7444 3.1601
a 7445 11692 2.6755
a 7446 7445 17.771
a 7446 13012 12.0593
a 7447 7443 24.7604
a 7448 12195 1.1117
a 7448 7840 21.6893
a 7448 7443 22.1545
a 7449 11406 2.2846
a 7449 7442 96.1027
a 7450 5750 5.2286
a 7451 5750 9.9878
a 7452 4234 3.5302
a 7452 4233 12.7664
a 7453 4237 0.6098
a 7453 11946 3.186
a 7453 2437 4.0867
a 7454 11425 2.111
a 7454 5826 2.6294
a 7454 12625 33.6529
a 7455 1265 6.2345
a 7455 7314 11.3299
a 7456 9762 2.6446
a 7456 5939 4.1969
a 7456 7457 4.5641
a 7457 8356 23.2209
a 7457 7456 12.7176
a 7457 7458 8.802
a 7458 8356 10.1376
a 7458 7457 8.802
a 7458 5941 3.4661
a 7459 11011 3.4834
a 7459 8342 3.2954
a 7459 5938 4.3013
a 7460 7461 8.3153
a 7461 7202 12.7697
a 7461 7460 8.3153
a 7461 10996 5.9414
a 7462 12195 8.0827
a 7462 12045 7.3793
a 7463 12467 0.6415
a 7463 12247 2.5121
a 7464 1649 14.0652
a 7465 8910 2.579
a 7465 7464 3.2998
a 7466 743 9.3722
a 7467 7466 2.1982
a 7467 13093 3.8326
a 7468 5610 1.1585
a 7468 5496 8.3815
a 7468 13272 4.5
a 7469 7470 4.1314
a 7469 7319 2.7187
a 7469 5646 14.4022
a 7470 7469 4.1314
a 7471 3777 2.381
a 7472 3989 1.0836
a 7472 3981 2.0923
a 7472 4081 11.6107
a 7473 7224 109.0587
a 7473 7223 69.2655
a 7473 13245 5.6074
a 7474 13245 1.9822
a 7474 7559 35.1554
a 7475 12624 107.807
a 7476 8322 5.6729
a 7477 7478 18.7258
a 7478 7477 674.0689
a 7478 9582 17.7588
a 7479 7209 10.2564
a 7480 4135 7.182
a 7480 8276 6.0466
a 7480 4136 7.7882
a 7481 10889 3.0103
a 7481 6030 3.8844
a 7481 4239 13.7995
a 7482 3969 7.0337
a 7483 10887 15.8516
a 7484 6053 6.5347
a 7484 11273 3.1932
a 7484 6054 6.498
a 7485 8354 2.0369
a 7486 6998 1.1282
a 7486 9701 2.1542
a 7487 9704 57.6403
a 7488 46 9.6134
a 7488 335 6.5426
a 7489 8849 6.6161
a 7489 13307 2.4545
a 7489 5706 10.224
a 7490 7491 17.6767
a 7490 10794 11.4624
a 7490 4269 3.6526
a 7490 10201 2.808
a 7491 7639 2.4617
a 7491 7490 17.6767
a 7491 12958 3.3775
a 7492 5274 11.0786
a 7492 5453 4.3387
a 7492 13306 0.5119
a 7492 5273 18.4097
a 7493 5272 8.9964
a 7493 5271 9.6444
a 7493 5466 3.5662
a 7494 5257 2.8231
a 7494 5248 16.0913
a 7494 5259 23.2481
a 7495 12674 1.2859
a 7495 10478 13.7938
a 7495 13286 9.2722
a 7496 4786 3.8923
a 7496 8766 9.1793
a 7496 8767 13.3258
a 7497 4787 5.891
a 7497 8767 3.767
a 7497 4786 21.145
a 7497 7427 5.251
a 7498 4794 3.5654
a 7498 4798 106.2754
a 7498 4798 20.8706
a 7499 7611 0.6048
a 7499 4808 4.2646
a 7499 7187 3.8938
a 7500 11481 10.6351
a 7500 5668 1.903
a 7500 5429 3.4222
a 7501 5731 0.4543
a 7501 5491 3.3458
a 7501 5633 9.7236
a 7502 1242 4.3819
a 7502 1317 18.8806
a 7503 9858 16.7162
a 7503 781 17.694
a 7503 780 3.4222
a 7504 1329 10.8547
a 7504 1328 4.7074
a 7504 8777 8.0071
a 7505 3146 5.3482
a 7505 7556 10.5307
a 7505 3166 478.3004
a 7506 747 60.0143
a 7506 9033 1.2816
a 7507 7847 19.4494
a 7508 170 2.1298
a 7508 7507 6.1461
a 7509 170 1.5674
a 7509 7507 3.3898
a 7510 6043 7.0229
a 7510 6044 5.5397
a 7510 11433 5.0926
a 7511 1315 4.8701
a 7511 1316 7.9978
a 7512 2476 4.4107
a 7512 1295 21.2342
a 7512 557 9.5249
a 7513 7610 13.4093
a 7513 2440 18.4349
a 7513 7434 4.973
a 7514 9656 5.1019
a 7514 7515 4.7254
a 7515 3714 62.1602
a 7516 7702 6.3014
a 7516 7517 3.0715
a 7516 7519 14.4605
a 7517 7519 205.2031
a 7517 7516 3.0715
a 7517 7518 4.8787
a 7518 7517 13.6345
a 7518 7641 5.2157
a 7518 2145 4.9514
a 7519 7520 5.1221
a 7519 7517 10.211
a 7519 7516 14.4605
a 7520 7519 5.1221
a 7520 7641 4.7995
a 7520 11159 4.0788
a 7521 13324 46.8806
a 7522 2978 4.639
a 7522 8078 6.773
a 7522 3169 27.8217
a 7523 113 3.0888
a 7524 7720 0.7315
a 7524 485 383.5057
a 7525 7712 0.671
a 7525 7714 82.5318
a 7526 481 0.6264
a 7526 10305 16.429
a 7527 9377 0.7344
a 7527 13071 6.3425
a 7528 11177 5.8126
a 7528 7529 3.6425
a 7528 13071 6.2885
a 7528 13040 12.2933
a 7529 2472 34.6858
a 7529 13041 12.6554
a 7530 2923 145.897
a 7530 3175 14.7269
a 7531 550 260.3159
a 7532 72 49.6806
a 7532 7555 12.7836
a 7533 2469 0.7762
a 7533 8177 5.1876
a 7534 2467 50.6039
a 7534 538 0.787
a 7535 395 0.7711
a 7535 12126 6.493
a 7536 5575 1.5322
a 7536 13181 245.7898
a 7536 5551 3.312
a 7537 7538 3.4538
a 7537 1234 6.174
a 7538 7540 1.093
a 7538 7541 3.6706
a 7538 7539 3.4495
a 7539 1290 10.1628
a 7539 7540 3.3754
a 7540 7542 3.7174
a 7540 7538 1.093
a 7540 7537 3.3401
a 7541 7246 3.1018
a 7541 7538 3.6706
a 7541 7244 5.6174
a 7542 1291 0.7258
a 7542 7540 3.7174
a 7542 552 9.0158
a 7543 7544 5.6002
a 7543 11954 9.6926
a 7543 7546 8.6414
a 7544 7548 2.0146
a 7544 11954 14.5836
a 7544 7543 5.6002
a 7545 1291 4.7131
a 7545 1232 72.302
a 7545 7546 8.8157
a 7546 560 100.8202
a 7546 1237 3.852
a 7546 7545 8.8157
a 7546 7543 195.3463
a 7547 7548 4.9219
a 7547 7552 1.4508
a 7548 7544 2.0146
a 7548 7547 4.9219
a 7548 1238 30.7776
a 7549 7245 4.824
a 7549 7550 5.5274
a 7549 7554 7.6471
a 7550 1236 2.4746
a 7550 1235 8.7955
a 7550 7549 175.7904
a 7551 1274 3.4121
a 7551 1279 3.047
a 7551 9490 4.4215
a 7551 564 6.4786
a 7552 561 164.1094
a 7553 561 4.3985
a 7553 560 223.7515
a 7553 7552 6.5858
a 7554 7246 4.8305
a 7554 1235 0.7337
a 7554 7549 7.6471
a 7555 7532 12.7836
a 7556 7505 10.5307
a 7556 99 5.616
a 7557 1230 0.9238
a 7557 12465 25.5996
a 7558 11256 2.5387
a 7558 7401 36.4795
a 7559 7402 2.9621
a 7560 1035 26.9544
a 7560 1089 4.2502
a 7561 7093 1.836
a 7561 9184 7.2907
a 7561 11927 9.8048
a 7562 5875 2.6777
a 7562 5886 8.1936
a 7562 11493 29.5648
a 7563 7564 9.8302
a 7563 7602 4.9435
a 7564 7603 9.3528
a 7564 7110 7.5946
a 7564 7563 9.8302
a 7565 6375 7.8847
a 7566 5950 1.3831
a 7567 11296 25.6118
a 7567 5425 22.0464
a 7567 407 3.6223
a 7568 7570 2.5423
a 7568 7571 1.6992
a 7569 7570 2.0412
a 7569 7571 1.9742
a 7570 11027 13.5281
a 7571 7433 5.9551
a 7572 8051 54.9129
a 7572 7573 12.8484
a 7572 7573 14.1509
a 7573 6982 7.5809
a 7573 7572 14.1509
a 7573 7572 12.8484
a 7573 7576 9.3859
a 7574 1043 2.0707
a 7574 9391 21.6151
a 7574 9055 7.3066
a 7575 9391 0.409
a 7575 1071 3.5244
a 7576 6982 8.8754
a 7576 7573 9.3859
a 7577 9805 18.8201
a 7577 10016 17.9164
a 7577 7576 5.6045
a 7578 3336 55.8739
a 7578 7676 13.788
a 7578 8927 9.0101
a 7579 4863 9.2153
a 7580 88 15.1051
a 7580 7581 3.9816
a 7581 7580 3.9067
a 7581 11071 2.5985
a 7582 4365 3.3703
a 7582 4550 0.707
a 7582 8909 9.1526
a 7583 7277 12.9558
a 7583 31 4.1969
a 7584 7585 3.312
a 7584 7587 7.043
a 7584 3599 34.2247
a 7585 7584 34.2208
a 7585 7588 6.3842
a 7585 5021 2.9203
a 7586 5021 43.7827
a 7587 7584 7.043
a 7588 7585 6.3842
a 7589 11110 2.8692
a 7589 4156 1.2874
a 7589 7591 5.4626
a 7590 9286 0.6876
a 7591 11110 4.3618
a 7591 7592 15.595
a 7591 7589 5.4626
a 7592 7591 1.2744
a 7593 7594 9.6502
a 7594 24 8.19
a 7595 8346 1.0872
a 7595 8564 10.9253
a 7595 12290 395.9747
a 7596 4781 50.5169
a 7597 13124 0.4104
a 7597 7268 7.7112
a 7597 7598 4.6339
a 7598 13123 0.7661
a 7598 8530 3.9485
a 7598 8956 3.5878
a 7598 7597 4.6339
a 7599 8831 1.9447
a 7599 11474 0.5918
a 7600 8531 21.1189
a 7600 13131 1.0404
a 7600 7269 15.8134
a 7601 11050 0.7488
a 7601 7599 2.2946
a 7601 11475 0.6019
a 7602 7601 2.3839
a 7602 11051 0.7034
a 7602 11476 0.6941
a 7603 10830 0.6379
a 7603 7269 11.1514
a 7603 7564 9.3528
a 7604 7606 1.1722
a 7604 7474 60.8156
a 7605 7212 11.0815
a 7606 870 3.0269
a 7606 7604 1.1722
a 7607 7608 1.3522
a 7607 12289 1.193
a 7607 8330 16.7501
a 7608 7607 1.3522
a 7608 10907 10.2154
a 7609 3722 3.3422
a 7609 12942 0.6984
a 7609 11768 7.4477
a 7610 12094 35.3857
a 7610 7513 13.4093
a 7610 7420 6.8897
a 7611 7499 0.6048
a 7611 6936 14.8342
a 7611 7428 4.0666
a 7612 7255 5.0975
a 7612 11788 2.9779
a 7612 3090 15.7939
a 7613 11972 7.7213
a 7613 316 55.3974
a 7613 83 13.104
a 7614 11398 8.5615
a 7614 7614 40.6462
a 7615 7692 3.6058
a 7616 4086 37.5991
a 7616 4075 4.1335
a 7616 7620 1.9735
a 7617 7619 8.8121
a 7617 3827 12.3098
a 7618 7617 6.6118
a 7618 7619 3.7958
a 7619 7620 14.8709
a 7619 7618 3.7958
a 7620 7692 10.7842
a 7620 7616 1.9735
a 7621 8626 63.5801
a 7621 12513 14.436
a 7622 12406 10.206
a 7623 7624 42.3348
a 7623 7353 1.1369
a 7624 7625 4.9032
a 7624 3230 1.0872
a 7624 3301 5.3136
a 7625 3266 1.0822
a 7625 10918 8.658
a 7625 3299 5.4173
a 7626 7627 20.8246
a 7626 3898 4.446
a 7627 3760 13.8528
a 7627 3848 7.2554
a 7628 10914 11.659
a 7628 3229 5.8867
a 7628 12774 0.9922
a 7629 8686 8.2872
a 7629 3585 6.6067
a 7630 2185 1.075
a 7630 7631 17.2008
a 7631 2758 1.6531
a 7631 11886 0.8438
a 7631 7761 18.2916
a 7632 12046 0.5666
a 7632 6971 3.7238
a 7632 6892 10.2859
a 7633 2140 6.0847
a 7633 7634 10.3496
a 7633 2141 7.2554
a 7634 2138 6.2453
a 7634 2863 3.6706
a 7634 7633 3.5878
a 7634 2139 10.2946
a 7635 2131 118.3255
a 7635 2127 6.3569
a 7635 7636 3.8066
a 7635 2905 3.5208
a 7636 2849 36.5903
a 7636 3115 3.3473
a 7636 7635 157.6589
a 7637 9746 147.3994
a 7637 9746 8.1763
a 7637 4636 2.227
a 7638 10317 113.534
a 7638 3426 11.0938
a 7638 7655 9.0482
a 7639 7491 2.4617
a 7639 5274 1.8972
a 7639 10204 147.7365
a 7639 9110 23.8536
a 7640 13127 1.309
a 7640 10437 4.7938
a 7640 4235 24.1507
a 7641 2143 3.7663
a 7641 7520 156.5226
a 7641 7518 5.2157
a 7642 611 5.503
a 7642 8923 8.6429
a 7642 11036 9.1073
a 7643 8924 4.3272
a 7643 618 48.2085
a 7643 8923 8.4276
a 7644 614 19.8551
a 7644 606 6.9977
a 7644 11036 6.6571
a 7644 8100 118.1732
a 7645 2971 4.4244
a 7645 2957 5.22
a 7645 7688 19.0282
a 7646 7647 3.5186
a 7647 2957 3.4517
a 7647 8047 27.1244
a 7648 9476 38.7018
a 7648 9476 19.0188
a 7648 8046 6.3792
a 7649 2872 9.3326
a 7649 7675 10.6135
a 7649 7688 250.6869
a 7650 1031 8.0143
a 7650 1028 3.9154
a 7651 11353 1.1419
a 7651 7652 1.8929
a 7652 741 13.7016
a 7653 12429 0.2858
a 7653 12331 1.2334
a 7654 7658 3.7735
a 7654 7520 10.9958
a 7655 7638 9.0482
a 7655 10329 37.5912
a 7655 3354 2.1355
a 7656 11732 2.2277
a 7656 7950 9.8755
a 7656 9978 2.7986
a 7657 11732 5.711
a 7658 12802 31.2408
a 7659 7660 12.2796
a 7659 3345 4.487
a 7659 9881 6.331
a 7660 7659 12.2796
a 7660 9885 6.0574
a 7660 10026 100.4555
a 7661 2395 9.3672
a 7661 7662 12.5071
a 7661 2406 5.9846
a 7662 8952 0.9504
a 7662 3082 2.1067
a 7662 7661 12.5071
a 7663 9032 8.1677
a 7664 1944 12.4445
a 7665 1982 5.9609
a 7666 1950 15.1056
a 7666 1940 327.829
a 7666 7667 5.5375
a 7667 6977 4.0363
a 7667 7666 172.3785
a 7668 1954 21.3914
a 7669 1955 1.3932
a 7670 1971 4.693
a 7670 12560 2.1974
a 7670 1973 32.4863
a 7671 1971 4.626
a 7671 1972 11.2212
a 7671 7271 2.6352
a 7672 1921 1.2002
a 7673 3528 19.9879
a 7675 7649 169.0337
a 7676 9884 6.9941
a 7676 7578 13.788
a 7676 2886 3.3768
a 7677 9023 10.0966
a 7677 7684 3.7339
a 7678 2886 3.1637
a 7678 7679 6.8004
a 7678 3114 11.551
a 7679 9023 6.5038
a 7679 7678 6.8004
a 7679 8046 3.991
a 7680 12009 1.9426
a 7680 9883 1.422
a 7681 9071 10.5134
a 7681 9207 7.0013
a 7682 11907 1.0829
a 7682 4962 9.8532
a 7682 12792 1.1189
a 7683 9208 17.5493
a 7683 9196 10.3046
a 7683 4966 6.9732
a 7683 6771 10.6186
a 7684 9024 7.007
a 7684 7685 3.4654
a 7685 7690 21.2275
a 7685 7684 3.4654
a 7685 2971 28.3594
a 7686 7689 3.8822
a 7686 7646 461.1859
a 7686 7688 5.6477
a 7687 7688 3.8902
a 7687 2956 1.6258
a 7687 144 132.6878
a 7688 7687 3.8902
a 7688 7645 19.0282
a 7688 7686 135.3404
a 7688 7649 28.1952
a 7689 7646 12.0938
a 7689 2872 4.0766
a 7689 7686 3.8822
a 7690 7685 3.8419
a 7690 1033 13.0147
a 7690 3000 13.3308
a 7691 3827 34.9439
a 7692 7615 168.2578
a 7692 7618 1.3392
a 7693 7694 8.0489
a 7693 1026 11.0146
a 7694 1030 5.621
a 7694 7693 8.0489
a 7695 3778 3.7915
a 7695 8878 4.6397
a 7696 3079 0.841
a 7696 7697 10.6214
a 7696 9605 17.717
a 7697 3527 0.7618
a 7697 3528 755.9601
a 7697 7698 18.792
a 7698 9684 27.6026
a 7699 4903 246.2673
a 7699 4894 4.3942
a 7699 4898 15.75
a 7700 8729 3.479
a 7700 3962 3.8412
a 7700 3877 5.5692
a 7701 8729 0.635
a 7701 10315 6.696
a 7702 7516 6.3014
a 7702 7703 7.0286
a 7702 7703 12.6511
a 7703 7702 12.6511
a 7703 7702 7.0286
a 7703 3708 4.7866
a 7704 3211 4.7549
a 7704 8 3.3415
a 7705 8 3.217
a 7705 7704 3.1248
a 7705 7770 68.6579
a 7706 7345 49.2779
a 7706 9356 15.7187
a 7707 12743 0.7178
a 7707 10130 8.6134
a 7708 13575 0.625
a 7708 7254 5.2063
a 7709 5388 83.1609
a 7709 5378 3.4805
a 7709 5380 26.5925
a 7709 5384 3.1068
a 7710 5382 7.2
a 7710 5378 3.325
a 7710 5381 26.4924
a 7710 5377 183.5313
a 7711 9112 8.0762
a 7711 8415 9.5551
a 7712 7715 0.7092
a 7713 7716 0.7344
a 7713 489 14.035
a 7714 7718 87.7806
a 7715 7266 0.7193
a 7715 7713 12.0096
a 7716 7526 0.7481
a 7716 7717 8.0762
a 7717 11180 0.7164
a 7717 2445 15.1553
a 7718 7663 1.7467
a 7718 12745 1.2384
a 7719 485 0.697
a 7719 7720 5.76
a 7720 7721 19.9619
a 7720 7525 51.3601
a 7721 479 49.5936
a 7721 7722 12.4409
a 7722 10305 0.7337
a 7722 481 16.4405
a 7723 8412 5.1768
a 7723 8412 28.7885
a 7724 12743 0.6538
a 7725 10243 6.8652
a 7725 8093 4.6541
a 7726 154 2.6165
a 7726 3522 12.0478
a 7726 2826 667.7514
a 7727 10089 4.0234
a 7727 13428 1.4314
a 7728 8972 10.7374
a 7728 11075 1.1038
a 7729 13138 18.5998
a 7729 10999 3.4049
a 7730 1540 5.9479
a 7730 7731 1.35
a 7730 9865 2.975
a 7731 7730 1.35
a 7731 7771 85.6679
a 7732 1214 2.1211
a 7732 12363 7.9577
a 7733 9694 2.0023
a 7733 3190 357.3542
a 7734 13372 2.2795
a 7734 13619 2.9894
a 7734 7735 3.7937
a 7735 7872 19.622
a 7735 7734 3.7937
a 7736 7422 9.4889
a 7736 8165 7.7789
a 7736 8157 7.493
a 7736 1862 23.5346
a 7737 3056 49.3296
a 7737 160 46.7114
a 7738 9692 12.1025
a 7738 12933 3.5465
a 7739 7740 2.3443
a 7739 10088 63.6306
a 7740 7738 1.0051
a 7740 10091 1.8446
a 7741 138 0.7654
a 7741 12579 13.6296
a 7742 7335 22.9078
a 7742 7741 78.3777
a 7743 3046 0.715
a 7743 7742 21.1954
a 7744 159 0.7826
a 7744 7747 25.645
a 7744 173 6.1337
a 7745 7743 6.439
a 7745 2551 6.408
a 7746 7745 6.7442
a 7746 109 13.3991
a 7747 2816 6.2309
a 7747 7746 1091.8689
a 7747 107 0.7992
a 7748 6956 0.913
a 7748 9434 10.5802
a 7749 51 1.1455
a 7749 2767 2.0167
a 7750 7809 1293.5934
a 7750 8048 30.6399
a 7751 6961 0.8906
a 7751 12854 0.8755
a 7751 10129 0.679
a 7752 7753 2.4134
a 7752 1570 17.0698
a 7752 10239 2.2666
a 7753 3328 8.7444
a 7753 10239 7.7175
a 7754 750 22.7045
a 7755 11312 0.6883
a 7755 77 7.3397
a 7756 9415 3.888
a 7757 152 1.0879
a 7757 8432 3.0989
a 7758 6794 1.0382
a 7758 6793 4.7456
a 7758 11509 5.4907
a 7759 9082 7.2302
a 7759 9898 4.3279
a 7760 7757 0.5962
a 7760 2761 1.5098
a 7761 7763 0.9619
a 7761 7349 9.5494
a 7762 10147 22.5054
a 7762 10921 5.4252
a 7763 7761 0.9619
a 7763 2758 1532.7553
a 7764 7765 64.5438
a 7764 8785 1.7028
a 7764 7766 7.9387
a 7765 7764 1.8382
a 7765 12385 0.4529
a 7765 12474 1.1822
a 7765 4036 14.4727
a 7766 3960 1.1203
a 7766 7764 7.9387
a 7766 10975 17.8387
a 7767 3240 3.3257
a 7767 3237 3.9492
a 7767 10979 5.6808
a 7768 325 9.4522
a 7768 7346 70.9048
a 7769 8 80.7351
a 7769 1541 12.762
a 7770 7731 2.353
a 7770 7771 2.7922
a 7770 7705 49.1191
a 7771 372 16.2468
a 7771 7770 2.7922
a 7771 7731 2.4084
a 7771 8960 12.3941
a 7773 1143 1.4983
a 7773 2441 5.4878
a 7773 11183 5.8702
a 7774 8114 15.9667
a 7774 10511 23.5368
a 7774 7775 3.6547
a 7775 7796 145.6983
a 7775 7972 1.7078
a 7775 7774 3.6547
a 7776 8132 3.7354
a 7776 7972 2.219
a 7776 7797 19.2024
a 7777 8273 23.5199
a 7777 9830 22.4293
a 7777 7831 4.1947
a 7777 7792 2.7007
a 7778 10224 1.1815
a 7778 10507 3.0305
a 7778 7782 10.9037
a 7779 10485 0.7085
a 7779 7979 9.6782
a 7779 10224 4.6368
a 7779 7980 2.2954
a 7780 9832 4.05
a 7780 9535 8.0618
a 7780 7783 3.2306
a 7780 7808 6.3965
a 7781 7782 2.1492
a 7781 11934 3.3329
a 7781 7980 11.5438
a 7782 9535 1.4846
a 7782 7781 2.1492
a 7782 7778 10.9037
a 7783 9831 5.2488
a 7783 7780 3.2306
a 7783 4477 6.2482
a 7784 9534 2.0426
a 7784 8112 7.074
a 7784 7786 0.9778
a 7785 4840 1.0721
a 7785 11931 11.4984
a 7785 11933 5.2726
a 7786 9831 8.7776
a 7786 7792 4.685
a 7786 7784 0.9778
a 7787 7997 2.1442
a 7787 7999 130.2489
a 7787 7788 5.1559
a 7788 7803 19.3628
a 7788 12664 7.8624
a 7789 7999 1.5142
a 7789 4840 216.0366
a 7790 11932 8.5558
a 7790 12664 6.4526
a 7790 12081 2.047
a 7790 7803 7.9855
a 7791 10511 0.9209
a 7792 7831 16.2656
a 7792 7786 4.685
a 7792 9832 5.4331
a 7792 7777 2.7007
a 7793 9409 23.4979
a 7793 4477 8.4355
a 7793 9534 3.3977
a 7794 9399 10.7185
a 7794 8132 3.0967
a 7794 9829 4.8038
a 7794 7798 13.0464
a 7795 7973 4.9522
a 7795 7974 2.6179
a 7795 9829 4.9442
a 7795 9532 4.5835
a 7796 7775 53.7903
a 7796 8114 2.0146
a 7796 7970 1.9505
a 7797 7970 1.9714
a 7797 8131 3.181
a 7797 9827 2.4977
a 7797 7776 19.2024
a 7798 9842 32.7412
a 7798 8110 2.8742
a 7798 7794 13.0464
a 7799 7800 1.0303
a 7799 1659 50.5346
a 7799 8745 13.3128
a 7800 7799 1.0303
a 7800 11333 1.8108
a 7801 12248 2.353
a 7801 2804 1.2924
a 7801 8661 8.0476
a 7802 12884 0.3521
a 7802 407 0.7999
a 7803 7788 6.894
a 7803 11933 3.8585
a 7803 7789 5.2416
a 7804 1949 5.2272
a 7804 1948 5.4065
a 7804 7806 2.7166
a 7805 1992 14.0314
a 7806 7804 2.7166
a 7806 8098 2.1542
a 7806 8096 1.2852
a 7807 8263 3.1154
a 7808 8263 4.405
a 7808 10507 64.8663
a 7808 7993 5.3287
a 7808 7780 6.3965
a 7809 7930 2.8253
a 7809 136 1.2571
a 7810 8372 7.4836
a 7810 8353 11.831
a 7811 9088 1.0483
a 7811 9089 1.7525
a 7811 9091 7.889
a 7812 12283 22.4932
a 7812 12141 3.1918
a 7812 8372 14.094
a 7813 10802 8.3909
a 7813 11996 9.7481
a 7813 7929 2.9671
a 7814 8297 3.7822
a 7814 4128 9.7027
a 7814 7815 14.5087
a 7815 7816 3.8347
a 7815 8288 5.5296
a 7815 7814 14.5087
a 7816 7817 1.4522
a 7816 7815 3.8347
a 7816 13202 0.7992
a 7817 8304 52.7431
a 7817 7816 1.4522
a 7817 8306 26.4698
a 7818 8304 2.0131
a 7819 8301 2.6453
a 7819 7822 13.8816
a 7819 9756 5.9854
a 7820 8294 2.4451
a 7820 8293 3.7591
a 7820 7822 14.6851
a 7821 9758 1.1254
a 7821 8293 5.0177
a 7821 8380 10.5538
a 7822 8301 11.2896
a 7822 7820 14.6851
a 7822 7819 13.8816
a 7823 7825 9.923
a 7823 8326 74.34
a 7823 11471 9.013
a 7824 8284 6.557
a 7824 13198 4.4813
a 7824 10010 43.7637
a 7825 13194 5.4022
a 7825 7823 9.923
a 7825 8558 5.9897
a 7826 8559 4.0262
a 7826 8561 5.634
a 7826 7827 48.9698
a 7827 10285 3.9334
a 7827 7826 5.1235
a 7827 7828 14.6477
a 7827 9469 9.0072
a 7828 7098 98.7257
a 7828 7098 130.3355
a 7828 7827 14.6477
a 7829 7914 4.3502
a 7829 7913 17.1914
a 7829 2081 19.5228
a 7830 7281 0.4399
a 7831 7792 3.8995
a 7831 9842 8.0388
a 7831 7777 4.1947
a 7831 9843 4.297
a 7832 10075 5.1293
a 7832 913 9.72
a 7833 13045 11.551
a 7833 1271 19.4652
a 7834 7488 15.1942
a 7834 336 6.5318
a 7835 9432 0.6761
a 7835 9879 2.1557
a 7836 11868 6.8789
a 7837 12 2.6834
a 7838 9955 2.3407
a 7838 10015 1.7071
a 7839 7462 14.3495
a 7839 8609 5.3215
a 7840 8511 0.9173
a 7840 9015 16.3498
a 7840 7446 18.0988
a 7841 7842 1.3162
a 7841 11190 8.2937
a 7842 7918 5.5606
a 7842 11190 9.0252
a 7843 13099 0.797
a 7843 7593 2.8217
a 7844 3680 20.5171
a 7844 1875 10.1506
a 7845 7844 0.8993
a 7845 1803 43.4537
a 7846 3925 24.3823
a 7846 13174 1.5401
a 7847 7834 127.5128
a 7848 7313 141.465
a 7849 7848 3.0528
a 7849 7850 9.8202
a 7849 2442 5.3244
a 7850 7849 2.8591
a 7850 10817 33.4111
a 7850 13015 1.2038
a 7851 1832 2.2932
a 7852 1829 5.2114
a 7852 1828 5.1869
a 7852 7853 60.3209
a 7853 7293 5.1358
a 7853 1830 5.1883
a 7853 7852 14.305
a 7854 12348 3.7944
a 7854 1018 4.4093
a 7854 7297 3.5381
a 7855 7297 4.2545
a 7855 920 35.0955
a 7856 7916 1.147
a 7856 860 13.284
a 7856 7857 153.5934
a 7857 9123 3.5741
a 7857 8823 3.6929
a 7857 7856 4.6469
a 7858 7859 1.3802
a 7858 3866 12.3206
a 7859 7858 1.3802
a 7859 3724 2.5459
a 7861 4191 1.4126
a 7861 7862 6.1531
a 7861 4190 7.6615
a 7862 11800 4.7981
a 7862 7861 6.1531
a 7862 11790 3.6072
a 7863 7864 23.0693
a 7863 7866 2.731
a 7864 1543 6.0451
a 7865 7866 2.3076
a 7865 7864 3.253
a 7866 8158 26.2015
a 7867 8278 4.0817
a 7867 6048 2.7569
a 7867 3640 5.1624
a 7868 7869 1.5775
a 7868 7895 60.2609
a 7868 7871 2.4854
a 7869 7868 1.5775
a 7869 6317 10.0735
a 7869 6317 15.0898
a 7870 8363 6.943
a 7870 8363 520.7752
a 7870 9810 7.6846
a 7871 6316 6.6622
a 7871 6314 6.5729
a 7871 7868 26.007
a 7872 51 3.7238
a 7872 7424 6.3302
a 7873 3487 7.3476
a 7874 8410 3.4553
a 7875 9467 255.5392
a 7876 2296 2.0462
a 7877 4288 0.9209
a 7879 1661 2.7612
a 7880 4759 2.2766
a 7883 4597 1.6639
a 7884 12905 1.2262
a 7885 12867 0.383
a 7885 404 14.8982
a 7885 12868 2.3371
a 7886 6926 1.0109
a 7887 6928 1.1585
a 7888 3436 0.8474
a 7889 3450 0.6725
a 7890 3461 0.7754
a 7891 3481 2.3364
a 7892 3486 4.6966
a 7893 3456 0.7661
a 7894 3452 0.8194
a 7895 6319 3.3206
a 7895 6318 3.343
a 7895 7868 9.0238
a 7896 6357 5.7456
a 7896 6326 0.4507
a 7896 6327 4.8722
a 7897 6356 2.7648
a 7897 10853 15.9545
a 7897 10403 6.1056
a 7898 11638 22.481
a 7898 6332 4.5706
a 7898 6327 3.8203
a 7899 6361 5.0486
a 7900 6313 8.1864
a 7901 6291 8.0705
a 7902 6330 7.5686
a 7902 6335 2.4415
a 7902 6334 16.5096
a 7903 4231 2.3263
a 7903 9381 3.2818
a 7903 9380 7.843
a 7904 10400 0.7243
a 7904 6352 12.3463
a 7905 3427 1.0217
a 7906 12187 2.8591
a 7906 5413 3.924
a 7906 5409 3.7505
a 7907 7909 3.1709
a 7907 11388 5.7982
a 7907 11388 29.2245
a 7908 7909 3.1781
a 7908 11387 5.8054
a 7908 11387 5.7967
a 7909 2258 16.2477
a 7909 2246 4.505
a 7909 7907 3.1709
a 7909 7908 3.1781
a 7910 7910 21.2026
a 7910 3882 5.7413
a 7911 3736 16.0635
a 7912 9006 5.611
a 7913 7914 4.2948
a 7913 7829 17.1914
a 7913 7915 11.6287
a 7914 7829 4.3502
a 7914 7913 4.2948
a 7914 11328 0.8734
a 7914 3164 10.9627
a 7915 12355 0.5767
a 7915 7913 11.6287
a 7915 3084 6.2683
a 7915 3164 4.3711
a 7916 7856 1.147
a 7916 7408 8.8747
a 7916 12604 2.3774
a 7917 2632 0.9583
a 7917 12147 0.8777
a 7917 7916 18.7207
a 7918 13148 0.3989
a 7918 12891 5.909
a 7919 7190 212.499
a 7919 7189 4.9975
a 7919 7920 2.4041
a 7920 6088 4.8801
a 7920 6086 6.8076
a 7920 7919 2.4041
a 7921 13159 0.977
a 7921 7843 4.3128
a 7922 12167 49.0846
a 7922 11553 76.006
a 7923 8550 15.079
a 7923 134 9.9518
a 7923 7925 6.2352
a 7924 8048 6.3518
a 7925 12010 6.5398
a 7925 7926 15.5729
a 7925 7923 19.39
a 7926 8550 5.0868
a 7926 8550 13.1328
a 7926 7925 37.9559
a 7927 1364 2.3623
a 7928 7929 4.7052
a 7929 7928 4.7052
a 7929 7813 2.9671
a 7930 7809 2.8253
a 7930 9087 4.4266
a 7930 11996 17.3664
a 7931 9430 6.7313
a 7931 8026 5.5793
a 7931 8027 5.8349
a 7931 8028 14.5418
a 7932 9825 15.133
a 7932 2200 11.52
a 7932 12164 0.527
a 7933 7945 2.1737
a 7934 4140 26.7458
a 7935 12184 2.4055
a 7935 10198 2.4235
a 7935 10195 1.998
a 7936 7938 3.7224
a 7936 867 2.5834
a 7937 9715 4.6836
a 7938 2748 422.0825
a 7939 7937 9.4666
a 7939 2185 2.371
a 7940 7941 2.2831
a 7941 4014 2.0815
a 7941 3927 0.6941
a 7941 7940 12.1013
a 7942 4014 12.865
a 7943 4116 6.4843
a 7943 4120 3.2969
a 7943 4115 1.4702
a 7944 1039 22.4028
a 7945 6314 2.1571
a 7945 6313 2.502
a 7945 7933 2.1737
a 7945 6319 9.9425
a 7946 2342 24.6948
a 7947 3700 11.9772
a 7947 13175 6.4339
a 7947 9825 46.7201
a 7948 778 42.2129
a 7948 777 1.813
a 7949 3625 18.6473
a 7950 7656 9.8755
a 7951 8568 7.3526
a 7951 11733 302.2587
a 7951 7954 5.387
a 7952 7954 5.2229
a 7953 9797 41.2385
a 7954 7952 5.2229
a 7954 7956 7.3836
a 7954 7951 5.387
a 7955 8568 2.1276
a 7956 9797 2.178
a 7956 11097 3.6094
a 7956 7954 7.3836
a 7957 7958 7.0651
a 7957 3304 21.3962
a 7957 12814 11.7209
a 7958 7957 0.81
a 7959 12781 0.3514
a 7960 12151 0.7884
a 7960 7350 4.2221
a 7960 7961 8.6414
a 7961 7960 8.6414
a 7961 12559 13.6667
a 7961 3680 13.1969
a 7962 11891 1.3795
a 7962 3228 7.272
a 7962 10223 14.701
a 7963 142 4.3121
a 7963 11883 4.628
a 7963 7964 10.2449
a 7964 3228 1.2427
a 7964 12392 1.0987
a 7964 7963 10.2449
a 7965 9426 133.035
a 7965 9222 2.2104
a 7966 7967 2.461
a 7966 9207 44.4946
a 7966 9071 37.0084
a 7967 7966 2.461
a 7968 9362 5.0429
a 7968 12609 214.041
a 7969 4851 6.1553
a 7970 7796 1.9505
a 7970 7797 1.9714
a 7970 7972 18.0929
a 7971 9533 1.7719
a 7971 9396 4.0579
a 7971 9531 1.8814
a 7972 7776 95.9429
a 7972 7775 1.7078
a 7972 7970 18.0929
a 7973 7795 350.5588
a 7973 9533 4.397
a 7973 9829 9.7056
a 7974 7795 2.6179
a 7974 8132 8.2793
a 7974 8131 12.7886
a 7975 12645 3.1802
a 7975 4138 2.9146
a 7975 4139 11.4811
a 7976 4069 6.6362
a 7976 4012 4.0075
a 7976 4138 3.6468
a 7977 4137 2.0304
a 7978 10510 2.1427
a 7978 8264 2.6561
a 7978 12544 1.679
a 7979 7779 9.6782
a 7979 7995 70.9785
a 7979 9526 8.4694
a 7980 7781 11.5438
a 7980 11239 67.761
a 7980 7779 2.2954
a 7981 7987 3.5194
a 7981 4955 10.9195
a 7981 9420 6.5016
a 7982 4841 8.1338
a 7983 4954 1.4292
a 7983 7987 651.1622
a 7984 7986 3.7361
a 7984 8006 16.5096
a 7984 4958 2.5121
a 7985 7991 3.1111
a 7985 7992 54.5018
a 7985 10509 4.0644
a 7986 7984 3.7361
a 7986 4945 2.3184
a 7986 4940 3.0276
a 7987 7981 25.5277
a 7987 10493 4.1827
a 7987 7983 124.8012
a 7988 8006 4.2012
a 7988 4940 0.329
a 7988 8005 2.6136
a 7989 7990 2.8548
a 7989 4958 2.5798
a 7989 10497 1.957
a 7990 7989 2.8548
a 7991 7985 3.1111
a 7991 7992 98.9516
a 7991 10496 1.8454
a 7992 13251 0.4327
a 7992 7991 2.3587
a 7992 7985 5.3885
a 7993 7808 146.5678
a 7993 9830 1.0253
a 7993 7994 128.6374
a 7994 13250 88.228
a 7994 7993 4.3121
a 7994 12664 7.3634
a 7994 8263 5.7031
a 7995 9522 77.3072
a 7995 7996 14.3093
a 7995 7979 20.61
a 7996 7995 79.2033
a 7996 9523 1.8907
a 7996 9526 3.9802
a 7997 7787 2.1442
a 7997 8001 5.3474
a 7997 8005 5.3258
a 7998 8000 1.6135
a 7998 10495 5.0105
a 7998 4840 5.364
a 7999 7789 1.5142
a 7999 7787 5.4734
a 7999 11693 9.918
a 8000 7998 1.6135
a 8001 4849 10.0577
a 8001 11693 85.4509
a 8001 7997 5.3474
a 8002 11929 2.9002
a 8003 8221 13.3141
a 8003 11928 7.0553
a 8003 10499 3.3588
a 8004 11929 7.2907
a 8005 10499 25.1936
a 8005 7988 2.6136
a 8005 7997 5.3258
a 8006 7988 4.2012
a 8006 7984 3.7865
a 8006 10496 5.0148
a 8006 11924 3.6122
a 8007 180 70.1719
a 8008 179 2.0066
a 8008 178 2.3328
a 8009 178 2.2615
a 8009 8016 2.196
a 8010 8022 29.172
a 8011 10221 2.1665
a 8011 180 19.3655
a 8011 8008 6.6737
a 8011 8014 3.6533
a 8012 8022 1.5718
a 8012 8017 28.2798
a 8012 8009 6.9502
a 8013 8504 1.3781
a 8014 8011 3.6533
a 8015 11740 1.5415
a 8015 8022 0.5501
a 8015 8016 6.6564
a 8016 8009 2.196
a 8017 8012 0.5155
a 8017 181 1.8461
a 8017 8021 4.5871
a 8018 12441 11.3861
a 8018 8019 1.2895
a 8019 819 16.743
a 8019 8504 5.0112
a 8019 12442 407.1719
a 8020 10221 5.8406
a 8021 8017 4.5871
a 8022 8015 0.5501
a 8022 8012 1.5718
a 8022 8010 3.8585
a 8023 5795 5.0299
a 8023 5793 125.0332
a 8023 8025 6.7666
a 8024 5790 8.3287
a 8025 5788 9.9439
a 8025 5795 3.9182
a 8025 8023 6.7666
a 8026 7931 5.5793
a 8026 8799 10.2679
a 8026 8028 346.8923
a 8027 7931 5.8349
a 8027 12818 2.965
a 8027 11449 4.5223
a 8028 8798 8.7106
a 8028 7931 786.7426
a 8028 8026 9.4248
a 8029 10032 2.3299
a 8029 9103 15.2488
a 8029 2200 22.7916
a 8030 12395 0.4565
a 8030 8031 3.5438
a 8030 9101 5.7031
a 8031 9104 2.6971
a 8031 9103 9.4061
a 8031 8030 3.5438
a 8032 8804 5.9063
a 8032 8803 4.0882
a 8032 13596 6.5556
a 8033 7487 5.2546
a 8033 8797 5.4108
a 8034 8035 1.4436
a 8034 754 210.9922
a 8035 8034 5.4483
a 8035 11955 13.2883
a 8036 11964 1.5588
a 8036 7259 5.3586
a 8037 7466 210.6014
a 8037 13093 2.4977
a 8038 2815 3.7836
a 8038 8040 18.8335
a 8039 8133 3.4056
a 8039 3153 4.8708
a 8039 8040 11.2162
a 8040 8038 6.4994
a 8040 2829 12.1003
a 8040 8039 11.2162
a 8041 8582 1.1794
a 8041 2301 18.527
a 8042 8041 1.7316
a 8043 786 1.2953
a 8044 844 6.6946
a 8045 842 4.4626
a 8045 4816 9.7322
a 8045 847 4.3423
a 8046 2886 5.4994
a 8046 7679 131.0311
a 8046 7648 6.3792
a 8047 2872 6.4994
a 8047 7647 18.972
a 8048 7924 6.3518
a 8048 134 84.6125
a 8048 7750 2.9196
a 8049 1029 7.7724
a 8049 145 8.7458
a 8050 9476 12.217
a 8051 7572 5.3762
a 8052 8055 29.8394
a 8053 9432 1.8763
a 8053 9875 5.171
a 8054 1036 9.6804
a 8054 1036 15.7421
a 8055 8052 126.9298
a 8055 1038 8.9878
a 8055 11165 28.7581
a 8056 9743 4.351
a 8057 1027 0.7834
a 8057 145 3.5258
a 8057 9744 20.7842
a 8058 8049 3.9463
a 8058 1038 5.9947
a 8058 1036 10.8382
a 8059 9875 1.4285
a 8060 1037 30.9357
a 8060 1038 10.0318
a 8060 11253 3.857
a 8061 662 4.2415
a 8061 11254 0.643
a 8062 3897 3.6907
a 8062 2121 37.6502
a 8062 3946 55.6526
a 8063 12508 2.2169
a 8063 3847 5.2704
a 8063 3897 33.0233
a 8064 11098 8.9093
a 8065 8068 6.871
a 8065 8066 10.9238
a 8066 8407 15.2093
a 8067 8068 2.8447
a 8067 8066 7.9754
a 8068 38 8.6328
a 8069 861 9.7877
a 8069 9679 14.359
a 8070 12602 0.6883
a 8071 547 8.9849
a 8071 8909 3.3386
a 8071 9053 2.8699
a 8072 8076 4.2379
a 8073 1288 3.9377
a 8073 4365 4.523
a 8074 1244 8.7019
a 8074 7161 8.4398
a 8074 8075 12.9709
a 8075 7164 38.0073
a 8075 7163 8.4362
a 8075 8080 3.0305
a 8075 8074 89.5892
a 8076 541 3.803
a 8076 1244 6.7226
a 8076 8072 4.2379
a 8077 526 4.7563
a 8078 7522 6.773
a 8078 3169 3.0859
a 8078 13493 24.4595
a 8079 1240 6.3223
a 8079 1294 215.6862
a 8079 1294 322.1422
a 8080 8075 3.0305
a 8080 1243 8.5399
a 8081 549 6.755
a 8081 10246 17.3131
a 8082 6987 82.301
a 8082 8081 5.8277
a 8083 7107 24.4303
a 8084 1322 418.1788
a 8084 8083 6.1013
a 8085 7667 9.7092
a 8085 7356 1.2593
a 8086 8135 10.9152
a 8086 6944 34.3937
a 8087 2449 4.1738
a 8087 10909 2.803
a 8088 1958 73.5013
a 8089 11145 20.8699
a 8089 10894 5.3834
a 8090 8083 43.8077
a 8090 8091 5.1149
a 8091 7725 5.4338
a 8092 8093 0.7762
a 8092 10893 2.8627
a 8093 10243 3.4877
a 8093 32 1.0253
a 8094 1148 5.765
a 8094 1383 8.9424
a 8094 1105 5.1055
a 8095 7365 39.6334
a 8095 73 2.4048
a 8096 7806 1.2852
a 8097 9435 1.1232
a 8097 7386 51.3113
a 8097 13096 12.6072
a 8098 7806 2.1542
a 8099 12410 0.3974
a 8099 10905 2.2111
a 8099 12174 0.6538
a 8100 616 8.7746
a 8100 12728 6.133
a 8100 7644 22.9411
a 8101 10890 16.53
a 8101 5987 1.5574
a 8101 5986 11.1283
a 8102 8107 3.7303
a 8102 4028 5.3856
a 8102 9102 4.0399
a 8103 8649 1.0886
a 8103 12394 0.3103
a 8103 8650 7.4736
a 8104 8650 4.7455
a 8104 9100 13.6836
a 8104 8647 3.2717
a 8105 9470 3.4193
a 8105 12396 0.4406
a 8105 9104 123.0017
a 8106 4028 0.7106
a 8107 8102 3.7303
a 8107 10222 15.0084
a 8107 11544 5.6844
a 8108 12163 32.0717
a 8109 12096 0.1634
a 8110 7798 2.8742
a 8110 9843 10.0462
a 8110 8111 153.328
a 8111 9410 1.0159
a 8111 8113 12.5402
a 8111 8110 4.8845
a 8112 8113 1.7518
a 8112 7784 30.1206
a 8112 9843 1.9627
a 8113 8112 1.7518
a 8113 9534 8.2541
a 8113 8111 12.5402
a 8114 7796 2.0146
a 8114 7774 15.9667
a 8114 8116 18.383
a 8115 9828 5.3186
a 8115 9826 1.571
a 8115 8152 3.4092
a 8116 4518 18.2873
a 8116 8114 18.383
a 8117 233 1.566
a 8117 8118 8.2058
a 8117 9851 4.5382
a 8118 2558 4.3344
a 8118 8117 25.9658
a 8118 8123 5.6412
a 8119 245 8.9287
a 8119 8995 13.23
a 8119 9292 4.6735
a 8120 8123 38.8448
a 8120 2567 5.004
a 8120 2536 17.1475
a 8120 2547 14.1235
a 8121 8995 5.6592
a 8122 8123 1.8245
a 8122 11230 18.5422
a 8122 8124 5.1646
a 8123 8120 3.3962
a 8123 8122 1.8245
a 8123 8118 35.3929
a 8124 8122 22.3817
a 8125 244 0.9929
a 8125 248 6.8796
a 8126 9855 5.6577
a 8127 2831 4.482
a 8127 2839 239.897
a 8127 2838 20.6129
a 8128 9532 7.6889
a 8128 8130 0.6487
a 8128 8129 9.954
a 8129 9828 6.4044
a 8129 8128 9.954
a 8129 9394 6.5066
a 8130 8131 14.9483
a 8130 9828 8.2627
a 8130 8128 0.6487
a 8131 7797 3.181
a 8131 8130 1.9699
a 8131 7974 12.7886
a 8132 7794 3.0967
a 8132 7776 3.7354
a 8132 7974 8.2793
a 8133 8039 3.4056
a 8133 2833 5.0148
a 8134 2528 40.8919
a 8134 11494 4.572
a 8134 173 72.1965
a 8135 8136 13.8866
a 8135 6988 2.0686
a 8136 8135 13.8866
a 8137 10074 0.5566
a 8137 10220 8.1864
a 8138 786 40.6143
a 8138 10219 7.4153
a 8139 787 1.4189
a 8139 12235 10.7496
a 8140 8141 137.6559
a 8140 7272 23.7384
a 8140 4317 18.4723
a 8141 7273 23.7917
a 8141 4318 18.4565
a 8141 8140 4.3574
a 8141 8142 4.5454
a 8142 7015 23.8464
a 8142 4319 18.4421
a 8142 8141 4.5454
a 8143 12826 30.1575
a 8143 3332 4.7282
a 8143 3343 11.4898
a 8144 1394 5.8363
a 8144 1615 64.2157
a 8144 1455 5.7132
a 8145 5397 2.4502
a 8146 3556 1.5854
a 8146 3559 43.7489
a 8147 6840 7.6212
a 8147 6816 230.5963
a 8147 6792 3.5726
a 8148 12753 0.8798
a 8148 8150 3.4279
a 8149 4032 0.8251
a 8149 13327 3.0614
a 8150 10097 100.2526
a 8150 9710 0.6386
a 8151 10815 12.8095
a 8152 8115 3.4092
a 8152 9393 12.047
a 8152 11706 22.2789
a 8153 9357 1.5617
a 8153 898 4.4928
a 8154 8156 3.186
a 8154 8153 0.9814
a 8155 8154 2.8274
a 8155 8156 3.7577
a 8156 9862 3.073
a 8157 7736 97.8282
a 8157 462 3.6158
a 8157 8165 185.2042
a 8158 894 0.5177
a 8158 901 7.9164
a 8159 12456 2.3407
a 8159 11007 32.4569
a 8159 12455 8.5118
a 8160 8163 8.239
a 8160 10001 52.0825
a 8160 8447 12.006
a 8161 1016 101.3548
a 8162 1730 3.9118
a 8163 979 4.3855
a 8163 8665 12.4099
a 8163 8160 8.239
a 8164 295 18.8086
a 8165 7736 7.7789
a 8165 8157 8.8049
a 8165 10077 3.2155
a 8166 13401 0.8338
a 8166 3860 7.9265
a 8167 1177 11.8606
a 8168 8171 3.5698
a 8168 922 3.703
a 8168 11919 73.9037
a 8169 8172 5.2805
a 8170 8171 4.6836
a 8171 929 3.5359
a 8171 8168 3.5698
a 8171 8170 38.3515
a 8172 932 3.3941
a 8172 929 3.4934
a 8172 8169 5.2805
a 8173 737 16.763
a 8174 742 2.5034
a 8174 8173 1.3284
a 8175 2178 12.0506
a 8176 9198 1.5732
a 8176 8175 1.7244
a 8177 2468 6.3199
a 8177 538 7.9193
a 8178 8179 9.319
a 8179 1080 5.4281
a 8179 573 5.4857
a 8179 8178 9.319
a 8180 7104 3.4798
a 8180 11272 13.3517
a 8180 7105 40.1141
a 8181 9418 8.4211
a 8181 2081 19.8713
a 8181 2080 17.6933
a 8182 7193 3.3314
a 8182 8490 3.312
a 8182 5662 46.2265
a 8182 8183 8.5543
a 8183 8182 8.5543
a 8183 8491 3.3019
a 8183 7193 11.9844
a 8184 12956 0.5407
a 8184 1220 17.7912
a 8185 8186 0.8914
a 8185 10991 1.9613
a 8186 10112 30.9938
a 8187 8192 1.6927
a 8187 8214 56.7091
a 8187 8191 1.741
a 8188 8209 1.8727
a 8188 8214 1.7719
a 8188 8192 4.6822
a 8189 8214 1.7755
a 8189 8792 3.9139
a 8189 8191 4.9601
a 8190 8200 27.6685
a 8190 8194 2.299
a 8190 8203 7.9495
a 8191 8204 1.0872
a 8191 8187 1.741
a 8191 8189 4.9601
a 8192 8188 52.3973
a 8192 2502 1.8821
a 8192 8187 11.4572
a 8193 8206 2.5927
a 8193 8210 12.3523
a 8193 8205 2.4235
a 8194 8190 2.299
a 8194 2502 2.947
a 8194 8209 1.7424
a 8195 8204 1.4306
a 8196 8791 2.6715
a 8197 8199 1.7834
a 8197 8217 4.5641
a 8197 8202 1.741
a 8198 8206 0.7769
a 8198 8211 18.3059
a 8198 2501 2.646
a 8199 8197 4.713
a 8199 8212 0.432
a 8199 8217 5.8104
a 8200 8203 5.5973
a 8200 8190 1.9246
a 8200 8208 3.1248
a 8201 8204 1.3363
a 8201 8202 7.4678
a 8201 8217 3.307
a 8202 2502 4.1227
a 8202 8197 1.741
a 8202 8201 19.5836
a 8203 8200 5.5973
a 8203 8207 2.1542
a 8203 8190 211.2536
a 8204 8191 1.0872
a 8204 8201 1.3363
a 8204 8195 1.4306
a 8205 8792 7.2684
a 8205 8209 2.2716
a 8205 8193 2.4235
a 8206 8193 2.5927
a 8206 8198 0.7769
a 8206 8791 47.883
a 8207 8203 2.1542
a 8207 8208 4.2581
a 8207 10475 3.9125
a 8208 8211 3.3962
a 8208 8207 4.2581
a 8208 8200 3.1248
a 8209 8188 47.7152
a 8209 8194 1.7424
a 8209 8205 2.2716
a 8210 8193 44.9385
a 8210 8791 2.2248
a 8210 12177 3.1716
a 8211 8198 9.2685
a 8211 10475 0.4435
a 8211 8208 3.3962
a 8212 8199 0.432
a 8213 1657 1.2024
a 8213 4736 9.977
a 8214 8188 1.7719
a 8214 8189 1.7755
a 8214 8187 4.6735
a 8215 8218 6.3209
a 8216 5770 6.7486
a 8217 8197 47.5404
a 8217 8201 3.307
a 8217 8199 5.8104
a 8218 5616 1.9627
a 8218 5633 3.3869
a 8218 8215 6.3209
a 8219 2516 27.6463
a 8220 10758 0.6235
a 8220 4837 66.5289
a 8221 8003 2.8692
a 8221 4941 13.2653
a 8221 10498 3.3617
a 8222 13525 1.391
a 8222 11175 14.5786
a 8223 12562 14.6167
a 8223 8224 539.5725
a 8224 11543 16.7652
a 8224 2122 24.7586
a 8224 8223 8.1792
a 8224 2110 194.8038
a 8225 138 4.9738
a 8225 3525 20.3033
a 8226 424 11.4113
a 8226 422 5.6873
a 8226 8227 5.3669
a 8226 3557 15.755
a 8227 9413 2.6042
a 8227 437 10.4868
a 8227 8226 5.3669
a 8228 2569 4.0997
a 8228 423 4.3063
a 8228 429 11.9376
a 8229 8230 1.9778
a 8229 10344 2.2853
a 8229 8236 14.9797
a 8230 8229 1.9778
a 8231 8234 8.4528
a 8231 8250 13.2501
a 8231 8233 439.936
a 8232 8247 2.4754
a 8232 8250 2.5834
a 8232 10348 17.0035
a 8233 8231 7.2504
a 8234 8235 2.6431
a 8234 8237 2.8843
a 8234 8231 8.4528
a 8235 8234 18.9914
a 8235 12138 5.9378
a 8235 8741 242.4302
a 8236 8237 2.484
a 8236 8239 2.3587
a 8236 8229 118.6828
a 8237 8236 2.484
a 8237 8234 146.2922
a 8237 8740 38.2543
a 8238 8239 38.1648
a 8239 8236 2.3587
a 8239 8241 2.4458
a 8239 8238 3.4193
a 8240 8241 4.0975
a 8241 8244 8.1978
a 8241 8239 6.4927
a 8241 8240 4.0975
a 8242 8244 4.9003
a 8243 8245 5.5166
a 8244 8241 2.4415
a 8244 8245 2.5272
a 8244 8242 4.9003
a 8245 8244 2.5272
a 8245 8247 2.2702
a 8245 8243 5.5166
a 8246 8247 6.5225
a 8247 8232 19.9721
a 8247 8245 2.2702
a 8247 8246 6.5225
a 8248 12859 37.5164
a 8248 10346 0.8993
a 8248 10345 14.7698
a 8249 11944 139.0947
a 8249 8251 3.9686
a 8249 11945 3.091
a 8250 8232 2.5834
a 8250 8231 42.4913
a 8250 8251 3.5266
a 8251 10347 18.4999
a 8251 8250 16.0495
a 8251 8249 3.9686
a 8252 8253 7.8941
a 8253 5399 4.6987
a 8253 5406 17.0518
a 8253 8252 7.8941
a 8254 7396 11.9534
a 8255 12080 8.6141
a 8255 8310 15.6434
a 8255 134 6.5203
a 8256 8257 3.0478
a 8256 4041 8.1958
a 8256 3808 2.718
a 8257 8256 12.4531
a 8258 3743 4.0219
a 8259 3953 5.5289
a 8259 4038 69.3005
a 8259 3862 20.0234
a 8260 8368 13.1804
a 8261 7629 2.6842
a 8261 11747 7.7933
a 8262 8266 3.7872
a 8262 8269 3.006
a 8262 8270 6.5542
a 8263 7808 4.405
a 8263 7807 3.1154
a 8263 7994 5.7031
a 8264 8273 10.3061
a 8264 9842 4.0716
a 8264 7978 2.6561
a 8265 9337 3.3761
a 8265 8270 2.6777
a 8265 10209 1.6207
a 8266 10208 0.9907
a 8266 8262 119.7333
a 8266 8271 3.2695
a 8267 2263 5.2524
a 8268 8271 3.479
a 8268 11743 2.9038
a 8268 11746 3.0766
a 8269 11749 3.8923
a 8269 13576 5.6866
a 8269 8262 3.006
a 8270 8265 2.6777
a 8270 12000 0.2275
a 8270 8262 6.5542
a 8271 8268 3.479
a 8271 11749 1.5703
a 8271 8266 3.2695
a 8272 2259 2.4602
a 8273 7777 13.8087
a 8273 13250 2.0333
a 8273 8264 10.3061
a 8275 12858 3.0931
a 8275 12286 4.3344
a 8275 2803 8.771
a 8276 7480 6.0466
a 8277 3314 8.1655
a 8278 8712 1.9253
a 8278 8354 75.247
a 8278 7867 31.8209
a 8279 3703 0.9058
a 8279 3733 0.6674
a 8279 8280 7.0855
a 8280 8279 7.0855
a 8281 3887 3.9917
a 8281 11947 3.4798
a 8281 3776 3.5647
a 8282 11947 1.841
a 8283 3776 0.5522
a 8283 12610 3.6785
a 8283 3820 4.2811
a 8284 4128 1.4825
a 8284 7824 6.557
a 8284 8286 4.104
a 8285 8380 3.3077
a 8285 9752 1.5955
a 8285 8292 10.7057
a 8286 8287 4.6037
a 8286 8287 11.0707
a 8286 8284 4.104
a 8287 8286 4.6037
a 8287 8286 11.0707
a 8287 12608 4.6339
a 8288 7815 5.5296
a 8289 8293 9.9065
a 8290 8295 27.3833
a 8291 8299 3.1615
a 8292 8285 10.7057
a 8293 8289 9.9065
a 8293 7820 3.7591
a 8293 7821 5.0177
a 8293 8299 204.4661
a 8294 8295 3.6122
a 8294 8301 1.1606
a 8294 7820 2.4451
a 8295 8299 6.4274
a 8295 8290 2.9873
a 8295 8294 3.6122
a 8296 8297 130.1416
a 8297 9752 1.2766
a 8297 7814 3.7822
a 8297 8296 5.6412
a 8298 9757 20.5661
a 8298 9758 3.3552
a 8298 9754 11.1168
a 8299 8295 6.4274
a 8299 8291 3.1615
a 8299 8293 3.6662
a 8300 13201 3.0348
a 8300 8302 4.4878
a 8301 7822 11.2896
a 8301 7819 10.4115
a 8301 8294 11.4113
a 8302 8303 7.5996
a 8302 8300 4.4878
a 8302 137 21.703
a 8303 8302 7.5996
a 8304 7817 1.075
a 8304 7818 85.4473
a 8304 8305 7.0531
a 8305 8304 7.0531
a 8306 7817 7.38
a 8307 11040 39.3862
a 8307 8308 6.4094
a 8307 8312 27.8788
a 8308 11482 28.481
a 8308 8307 6.4094
a 8308 8309 16.1273
a 8309 8569 35.0237
a 8309 8308 16.1273
a 8310 8311 11.3242
a 8310 137 2.5078
a 8310 8255 15.6434
a 8311 8310 11.3242
a 8312 8307 9.1764
a 8313 8586 9.5249
a 8314 11367 4.8103
a 8314 3642 3.7001
a 8314 10873 7.4239
a 8315 12452 5.0004
a 8316 4122 14.1516
a 8316 4119 3.6742
a 8316 4114 3.8354
a 8317 7263 6.4498
a 8317 8319 476.5983
a 8317 2970 12.8052
a 8318 10093 3.69
a 8318 2111 3.1291
a 8318 2112 3.9391
a 8319 8317 461.9285
a 8320 6025 14.5742
a 8321 10994 0.6898
a 8321 12515 2.8692
a 8321 7438 18.6127
a 8322 10994 3.6806
a 8322 7476 5.6729
a 8322 11013 5.0983
a 8323 7109 2.3969
a 8323 5919 1.4976
a 8323 9720 353.0251
a 8324 9775 4.0277
a 8324 5889 1.0526
a 8324 5891 6.5635
a 8325 11444 8.8495
a 8326 7823 5.3287
a 8326 9758 14.6556
a 8326 11470 12.8297
a 8327 4195 6.7406
a 8328 9777 6.462
a 8328 9777 13.4813
a 8328 9779 1.0174
a 8329 5879 44.2835
a 8329 5877 0.9986
a 8329 5880 8.7055
a 8330 7092 4.1774
a 8330 7607 16.7501
a 8330 3716 135.6169
a 8331 5892 7.7291
a 8332 5907 7.2475
a 8332 11444 46.2134
a 8332 5894 3.618
a 8333 10362 2.2997
a 8333 8334 6.5448
a 8333 11592 4.5151
a 8333 7007 4.1717
a 8334 8333 6.5448
a 8335 8935 30.9171
a 8336 4192 10.1455
a 8337 3961 3.2328
a 8338 3891 7.385
a 8338 9854 21.6547
a 8339 8354 2.6028
a 8340 9112 1.7813
a 8340 10397 14.4842
a 8341 6046 1.9138
a 8342 11012 5.8627
a 8342 8343 186.8749
a 8342 7459 3.2954
a 8343 8342 4.4129
a 8343 5938 3.4481
a 8343 5935 2.9405
a 8344 8346 63.966
a 8345 12416 1.1974
a 8345 8347 1.8662
a 8346 7595 1.0872
a 8346 8344 13.2048
a 8346 3712 9.1318
a 8347 8345 19.2962
a 8348 13190 5.153
a 8348 2671 12.8822
a 8348 3824 283.4136
a 8349 2691 1.0418
a 8349 7062 21.3696
a 8350 2092 11.6561
a 8350 2147 5.8486
a 8351 12013 21.155
a 8351 11517 13.0143
a 8352 7810 1.5343
a 8352 8372 1.476
a 8353 11300 4.3366
a 8353 8625 21.5748
a 8353 7810 139.7535
a 8354 7485 45.9519
a 8354 6047 4.2732
a 8354 8278 1.7496
a 8354 8339 2.6028
a 8355 4018 1.4767
a 8355 3686 54.8662
a 8355 3953 17.4629
a 8356 7457 1.895
a 8356 7458 10.1376
a 8356 12469 2.4876
a 8357 7203 2.0686
a 8357 7207 1.7352
a 8357 8358 21.1147
a 8358 8357 6.3216
a 8359 5980 2.1737
a 8359 5960 5.1286
a 8359 5981 3.137
a 8360 8361 4.2127
a 8360 12597 5.6232
a 8360 12597 9.0266
a 8361 8360 4.2127
a 8361 2678 0.4457
a 8361 2679 1.8504
a 8362 12957 0.9554
a 8362 12062 0.5796
a 8362 12812 0.8172
a 8363 12888 1.0361
a 8363 7870 6.943
a 8363 7870 7.7486
a 8364 3808 5.6635
a 8365 3757 3.821
a 8365 7276 9.0382
a 8366 1395 4.2235
a 8366 8367 13.2689
a 8366 1432 3.9924
a 8367 1388 0.6941
a 8367 1395 13.5036
a 8367 8366 13.2689
a 8368 8260 1.8972
a 8368 3780 111.4728
a 8368 3905 9.4169
a 8368 3803 5.405
a 8369 1108 2.9988
a 8369 1109 8.095
a 8369 8370 6.1654
a 8370 2459 5.6376
a 8370 1337 6.9113
a 8370 8369 6.1654
a 8371 1332 0.3132
a 8371 1380 8.5046
a 8372 7810 1.5883
a 8372 7812 14.094
a 8373 11288 1.3586
a 8374 10008 8.3434
a 8375 4050 4.0954
a 8375 2790 3.6216
a 8375 8694 4.3265
a 8375 11794 9.5832
a 8376 3308 6.1027
a 8376 11273 4.9867
a 8376 12629 22.8686
a 8378 2532 0.9641
a 8378 2529 65.6006
a 8379 7356 18.6883
a 8380 8285 3.3077
a 8380 9754 2.0102
a 8380 7821 10.5538
a 8381 3790 6.3497
a 8381 4020 3.7908
a 8381 3851 0.8114
a 8382 3684 4.2149
a 8382 4008 6.6391
a 8382 4060 6.9818
a 8382 3752 13.0284
a 8383 9084 42.3008
a 8383 8384 3.564
a 8384 13133 598.1002
a 8385 8386 2.6726
a 8385 9265 1.4162
a 8385 6766 3.3919
a 8386 8385 2.6726
a 8386 9924 1.9721
a 8386 6778 3.744
a 8387 8388 1.6934
a 8387 8388 9.4298
a 8387 9265 0.8395
a 8388 8387 1.6934
a 8388 8387 31.0825
a 8388 9924 5.1516
a 8388 6777 89.1133
a 8389 6855 1.566
a 8389 12078 4.9219
a 8389 11457 5.4842
a 8389 10781 1.7014
a 8390 9206 5.8532
a 8391 6855 0.8928
a 8391 8402 1.5005
a 8391 6849 6.6946
a 8392 6711 7.5938
a 8393 9340 2.8174
a 8393 6757 1.8778
a 8393 9204 8.3448
a 8394 11838 5.5757
a 8395 8403 7.0063
a 8396 6416 5.7377
a 8397 8438 0.9266
a 8397 9206 8.6429
a 8397 9205 7.8559
a 8398 6654 1.99
a 8398 10666 5.3957
a 8398 6483 10.0498
a 8399 6488 4.0608
a 8400 6854 1.9742
a 8400 11457 13.44
a 8400 11729 3.9326
a 8401 8405 5.76
a 8401 9900 45.7225
a 8401 11579 0.5126
a 8402 8391 1.5005
a 8402 11838 123.6237
a 8402 11459 4.639
a 8403 7387 1.5955
a 8403 8395 7.0063
a 8403 7388 6.0617
a 8404 11754 0.6869
a 8405 6829 1.3896
a 8405 8401 5.76
a 8405 12296 3.3919
a 8406 6756 2.6525
a 8406 6755 0.7279
a 8406 9311 19.7035
a 8407 101 2.2493
a 8407 8988 23.1797
a 8408 3265 0.8287
a 8409 11435 4.2264
a 8409 12414 10.3068
a 8410 12103 2.6662
a 8410 7874 3.4553
a 8411 9467 2.3645
a 8412 4834 15.0444
a 8412 7723 28.7885
a 8413 8414 5.5663
a 8414 332 0.6235
a 8414 723 4.3142
a 8414 8413 5.5663
a 8415 8794 14.5202
a 8416 1656 2.7281
a 8417 2176 2.9254
a 8417 11545 2.4365
a 8417 8418 177.3012
a 8418 8417 5.4274
a 8419 1213 5.4259
a 8419 1217 3.3854
a 8420 9113 1.0382
a 8420 10003 2.1211
a 8421 10003 3.5438
a 8421 8420 2.2903
a 8422 1573 2.8339
a 8423 8536 0.9382
a 8423 7410 2.2039
a 8424 744 9.2419
a 8425 8428 7.6018
a 8425 6744 1.9541
a 8426 9364 3.1687
a 8426 9161 8.131
a 8426 6496 17.527
a 8427 9208 1.5732
a 8427 10573 10.7561
a 8427 8429 3.4769
a 8428 6745 2.0009
a 8428 8438 145.3326
a 8429 9223 3.3516
a 8429 8427 95.2402
a 8429 4966 5.8975
a 8430 732 1.4414
a 8430 8435 9.8035
a 8430 4971 4.6145
a 8431 6389 6.5102
a 8432 8436 9.954
a 8433 10570 2.3342
a 8433 2943 3.2206
a 8433 9225 5.7996
a 8433 9226 3.6029
a 8434 4158 250.7005
a 8434 5118 9.2117
a 8434 5117 5.1106
a 8435 733 1.0138
a 8435 7067 20.5999
a 8435 8437 15.7406
a 8436 11422 12.1367
a 8436 1219 1.2773
a 8437 6741 0.7157
a 8437 8425 7.308
a 8437 6743 2.2975
a 8438 6641 0.7582
a 8438 8397 0.9266
a 8438 12120 26.3002
a 8439 11596 0.4766
a 8439 9925 3.5078
a 8439 11610 3.3084
a 8440 8444 5.161
a 8441 6940 0.9929
a 8441 6937 9.9871
a 8442 11596 8.9662
a 8442 6801 3.451
a 8442 13485 1.7734
a 8443 9925 1.0858
a 8444 6801 1.6704
a 8444 8440 14.9692
a 8444 6799 2.0484
a 8445 11842 14.2475
a 8445 9962 6.9804
a 8445 8446 3.587
a 8446 8445 3.587
a 8447 7232 4.0925
a 8447 7231 10.4242
a 8447 8160 12.006
a 8448 932 3.5582
a 8448 8449 3.983
a 8448 3206 3.9564
a 8449 8448 3.983
a 8450 8451 24.6521
a 8450 8451 12.9924
a 8450 901 93.5338
a 8451 8753 6.6175
a 8451 8450 12.9924
a 8451 8450 24.6521
a 8452 638 213.2344
a 8452 6989 5.058
a 8453 639 1.0109
a 8453 1043 45.4658
a 8453 638 9.5501
a 8454 7186 6.7356
a 8454 11118 2.9974
a 8454 921 8.7696
a 8455 13319 0.2102
a 8455 8456 0.6962
a 8455 9182 9.5774
a 8456 8462 3.3084
a 8456 8455 0.6962
a 8456 8474 100.8709
a 8457 10740 0.4946
a 8457 8480 6.7198
a 8457 10741 167.5496
a 8458 12703 2.0556
a 8458 8464 57.4423
a 8458 8473 3.9146
a 8459 7078 3.4546
a 8459 7084 1.2082
a 8459 8461 13.079
a 8460 12704 1.877
a 8460 12702 6.5313
a 8460 8476 166.4795
a 8461 8459 4.7916
a 8461 8475 12.5582
a 8461 11598 2.5006
a 8462 8456 3.3084
a 8462 8479 4.3834
a 8462 12049 6.2028
a 8463 8467 15.7047
a 8463 13333 0.2146
a 8463 6490 7.5334
a 8464 8458 2.0016
a 8464 10342 4.5461
a 8464 8485 5.2891
a 8465 7381 3.5222
a 8465 8482 9.4759
a 8465 8472 19.5062
a 8466 8468 1.8439
a 8466 8478 4.127
a 8466 8478 7.4657
a 8467 8463 1.5206
a 8467 13331 0.4925
a 8467 6638 3.8858
a 8468 8477 4.8449
a 8468 8466 1.8439
a 8468 13551 1.643
a 8468 7091 8.3866
a 8469 10737 3.137
a 8469 8479 3.0031
a 8469 10734 5.7708
a 8470 8472 3.1565
a 8470 7381 1.8194
a 8470 7383 1.8259
a 8471 6383 40.3053
a 8471 6499 12.3703
a 8471 9047 4.0277
a 8472 8482 1.9865
a 8472 8470 3.1565
a 8472 8465 142.1315
a 8473 12704 5.4128
a 8473 8458 31.7662
a 8473 8485 5.9638
a 8474 13432 1.723
a 8474 8456 2.6078
a 8474 10734 267.2553
a 8475 8461 12.5582
a 8476 12701 1.7942
a 8476 12703 1.8619
a 8476 8460 3.8542
a 8477 8468 4.8449
a 8477 7091 22.2574
a 8477 8478 1.8713
a 8478 8466 4.127
a 8478 8466 7.4657
a 8478 8477 1.8713
a 8479 8462 43.9823
a 8479 8469 3.0031
a 8479 13337 5.8608
a 8480 12105 2.0722
a 8480 13430 1.8209
a 8480 13432 1.5545
a 8480 8457 6.7198
a 8481 8483 6.5945
a 8481 12941 5.2582
a 8481 12941 33.2152
a 8482 8472 1.9865
a 8482 7383 7.349
a 8482 8465 9.4759
a 8483 8481 17.8646
a 8484 9047 46.5629
a 8485 10341 3.5057
a 8485 8473 5.9638
a 8485 8464 5.2891
a 8486 8487 3.227
a 8487 6409 49.1091
a 8487 8486 3.227
a 8487 11518 13.2977
a 8488 9162 3.5482
a 8488 6548 65.2607
a 8488 9137 2.8368
a 8489 12721 5.3676
a 8489 12721 10.8101
a 8489 9314 4.9846
a 8490 8182 3.312
a 8490 5697 3.3192
a 8490 11151 9.3866
a 8491 13261 2.6086
a 8491 5697 9.8885
a 8491 8183 3.3019
a 8492 211 11.2003
a 8492 210 34.577
a 8492 196 5.3345
a 8493 8495 4.5216
a 8493 220 8.5226
a 8493 8496 41.6616
a 8494 12785 6.9725
a 8494 217 4.7606
a 8494 8496 8.6364
a 8495 8493 4.5216
a 8495 8497 96.0698
a 8495 215 7.0906
a 8496 8497 6.1186
a 8496 8494 8.6364
a 8496 8493 8.2663
a 8497 8495 3.0931
a 8497 8496 6.1186
a 8497 11673 5.544
a 8498 213 21.2958
a 8499 2322 3.0636
a 8500 8507 0.3938
a 8500 781 6.2107
a 8500 11204 16.0135
a 8501 8503 22.6764
a 8502 774 9.6142
a 8502 13379 0.6005
a 8503 765 8.7091
a 8503 8501 22.6764
a 8503 11024 9.6394
a 8504 820 4.6404
a 8504 8013 5.7818
a 8505 783 1.116
a 8505 8508 31.907
a 8505 784 315.269
a 8506 3569 20.7792
a 8507 8500 0.3938
a 8507 8508 362.2523
a 8507 9860 5.3856
a 8508 8505 3.1317
a 8508 8507 9.3074
a 8508 783 1.0994
a 8509 7255 1.2751
a 8510 5315 2.4516
a 8510 5371 10.1902
a 8510 5374 4.5994
a 8511 7840 0.9173
a 8511 7839 486.5312
a 8512 8513 1.1873
a 8513 8421 1.1059
a 8513 1636 15.031
a 8514 1102 1.7986
a 8514 8512 1.3118
a 8515 24 13.7124
a 8516 2628 3.6655
a 8516 7024 12.8038
a 8517 736 9.7726
a 8518 7350 9.5623
a 8518 8649 3.7613
a 8518 12558 0.9821
a 8519 2516 26.5558
a 8519 2807 4.8607
a 8519 2500 167.4932
a 8520 2499 6.1193
a 8520 2503 946.2407
a 8520 2503 11.3911
a 8521 460 8.5543
a 8521 6923 4.2826
a 8522 6260 14.6261
a 8522 6260 12.037
a 8522 6261 9.7711
a 8523 104 15.822
a 8524 5288 12.3797
a 8524 11375 1.8914
a 8524 5291 9.8791
a 8525 11378 3.9996
a 8525 8539 12.6583
a 8525 12384 0.7466
a 8526 11371 5.7384
a 8526 5294 152.6175
a 8526 11200 396.4424
a 8527 13234 2.8296
a 8527 5288 18.6227
a 8527 11372 10.6265
a 8528 3701 5.6988
a 8529 3850 2.5855
a 8529 12098 35.887
a 8529 8533 5.1012
a 8530 8531 0.7279
a 8530 7598 100.0341
a 8530 10442 18.4378
a 8531 10446 7.9234
a 8531 7600 37.3714
a 8531 8530 0.7279
a 8532 12804 0.373
a 8532 4035 24.5367
a 8532 3934 24.5576
a 8533 8529 5.1012
a 8533 13226 4.3891
a 8533 4064 77.2056
a 8534 4146 11.3793
a 8534 8613 26.8517
a 8534 6894 25.1904
a 8535 8423 1.3673
a 8535 7416 2.2428
a 8536 7412 2.5006
a 8536 8728 1.3723
a 8537 13231 1.3082
a 8537 10983 0.8676
a 8537 13232 76.9887
a 8538 5294 3.0924
a 8539 8542 3.3034
a 8539 8614 0.2664
a 8539 8525 483.5381
a 8540 11270 7.9438
a 8540 8542 22.6807
a 8540 4264 5.5908
a 8541 8653 3.1442
a 8541 8542 8.1677
a 8541 8571 309.4666
a 8542 8539 3.3034
a 8542 8541 8.1677
a 8542 8540 22.6807
a 8543 8544 5.8579
a 8544 8543 5.8579
a 8544 3658 3.4783
a 8544 8545 4.3207
a 8545 8546 3.1846
a 8545 8544 4.3207
a 8545 276 6.2633
a 8546 8545 3.1846
a 8547 4064 6.3079
a 8548 9256 3.5258
a 8548 6812 9.522
a 8548 6796 10.9706
a 8549 6955 27.1934
a 8549 1920 6.6197
a 8549 1917 84.81
a 8549 1922 5.0976
a 8550 7926 12.3359
a 8550 7926 13.1328
a 8550 7923 15.079
a 8551 8555 10.6819
a 8552 8553 9.8402
a 8553 12857 3.3005
a 8553 8552 9.8402
a 8553 8556 11.6338
a 8554 8555 4.091
a 8555 8554 18.6876
a 8555 8551 10.6819
a 8555 8556 7.0114
a 8556 8557 3.4682
a 8556 8553 11.6338
a 8556 8555 7.0114
a 8557 2794 3.7598
a 8557 2709 3.4891
a 8557 8556 3.4682
a 8558 8559 16.9476
a 8558 8560 53.2579
a 8558 7825 5.9897
a 8559 7826 14.5334
a 8559 8558 3.479
a 8559 10285 8.033
a 8560 8558 252.5893
a 8561 7826 17.8539
a 8562 8564 4.4647
a 8563 4259 6.0026
a 8564 8562 17.1036
a 8564 12095 1.9598
a 8564 7595 41.8061
a 8565 6007 6.1942
a 8566 8567 1.337
a 8566 3728 15.7111
a 8567 8566 3.9782
a 8567 4051 22.6282
a 8568 7951 7.3526
a 8568 7955 2.1276
a 8568 9797 83.8991
a 8568 12580 50.7277
a 8569 8351 10.9872
a 8569 11152 3.3595
a 8570 3254 2.471
a 8571 8541 9.0389
a 8572 11453 1.0145
a 8572 9901 1.4702
a 8573 9584 1.3738
a 8573 2761 6.1222
a 8574 3122 1.8461
a 8574 8575 1.8317
a 8574 11607 35.1841
a 8574 10584 3.4524
a 8575 8574 1.8317
a 8575 10585 54.7031
a 8575 10586 4.9241
a 8576 11143 0.6127
a 8576 11144 78.4518
a 8577 11301 1097.6805
a 8578 3040 0.7128
a 8578 7 3.0456
a 8579 8137 1.1477
a 8582 8041 1.1794
a 8582 7352 14.737
a 8582 8581 1.9224
a 8583 5486 3.5266
a 8583 5650 2.7151
a 8583 5710 4.6051
a 8584 5506 8.0914
a 8585 6000 0.6674
a 8585 5995 1.1066
a 8585 6001 46.3568
a 8586 4118 4.0766
a 8586 11367 0.3938
a 8586 8313 9.5249
a 8587 4109 3.8275
a 8588 5502 33.2359
a 8589 10188 12.294
a 8590 3222 1.9548
a 8590 2726 4.4719
a 8590 2724 7.6298
a 8591 4488 0.6502
a 8591 8593 6.1286
a 8592 8594 14.4158
a 8592 3477 0.725
a 8592 3432 6.4418
a 8593 12325 0.527
a 8593 12326 1.9534
a 8594 3438 4.5907
a 8594 3485 0.7164
a 8594 9935 6.2921
a 8595 8596 4.1234
a 8595 4287 0.7301
a 8595 4547 8.6933
a 8596 4529 0.6905
a 8596 8597 261.3046
a 8597 4341 0.6689
a 8597 8591 4.8132
a 8598 8600 48.7784
a 8599 3470 1.9613
a 8599 8592 4.5223
a 8599 3431 19.6951
a 8600 3489 4.6138
a 8600 3475 0.7625
a 8600 8599 17.995
a 8601 10947 13.1558
a 8602 11512 3.5078
a 8602 8604 2.5531
a 8602 11511 20.9419
a 8603 11533 5.683
a 8603 11536 2.4307
a 8603 8607 1.6668
a 8604 8608 2.5769
a 8604 11513 3.7735
a 8604 8602 2.5531
a 8605 12236 77.5816
a 8605 11514 2.5229
a 8605 12585 2.0419
a 8606 12585 1.0613
a 8607 8603 1.6668
a 8607 8608 2.8706
a 8607 12586 4.4467
a 8608 8604 2.5769
a 8608 12047 21.4777
a 8608 8607 2.8706
a 8609 7275 2.3076
a 8609 8716 6.575
a 8609 7839 5.3215
a 8610 11520 144.1696
a 8610 10009 513.159
a 8611 8612 4.7419
a 8611 8612 9.2873
a 8611 3872 5.2898
a 8612 8611 4.7419
a 8612 8611 9.2873
a 8612 3674 139.6729
a 8613 8534 1068.8494
a 8614 8539 0.2664
a 8615 52 82.4147
a 8615 1530 5.3878
a 8616 1542 18.9101
a 8617 12418 1.0519
a 8617 8616 1.8115
a 8618 117 3.474
a 8618 13139 1.3536
a 8619 10970 2.6734
a 8619 8639 129.3194
a 8619 8638 2.1146
a 8620 3605 11.736
a 8620 12796 6.7406
a 8621 5348 7.9344
a 8622 2556 4.464
a 8622 2548 10.5084
a 8622 8623 5.0522
a 8623 2547 10.4371
a 8623 2535 9.815
a 8624 9086 4.9651
a 8624 11525 3.6137
a 8624 11528 0.9324
a 8625 139 1.9382
a 8625 11525 3.6922
a 8626 13080 0.6718
a 8627 8630 4.0025
a 8628 8633 14.5994
a 8628 8629 21.7987
a 8628 13445 15.0019
a 8629 4141 2.8966
a 8629 5220 13.8478
a 8629 8628 21.7987
a 8629 5219 18.8575
a 8630 8632 4.6267
a 8630 3797 2.5733
a 8630 8627 4.0025
a 8631 8633 5.3856
a 8632 8630 4.6267
a 8632 8633 5.976
a 8632 10971 4.6008
a 8633 8631 5.3856
a 8633 8632 5.976
a 8633 8628 14.5994
a 8634 7264 3.096
a 8635 8636 3.7181
a 8636 13613 0.9382
a 8636 8635 3.7181
a 8636 3762 3.4265
a 8637 4141 5.5238
a 8638 13567 1.6812
a 8638 8619 2.1146
a 8638 10974 3.5006
a 8639 8619 5.1372
a 8640 8641 2.7598
a 8640 5236 9.5868
a 8640 5239 7.8487
a 8641 8640 2.7598
a 8642 10792 13.9219
a 8642 2308 8.4067
a 8643 1141 133.9612
a 8643 12882 9.7826
a 8644 1085 0.396
a 8644 8643 8.3218
a 8645 8919 1.2053
a 8645 5232 3.8621
a 8645 10207 11.7446
a 8646 8648 2.9066
a 8646 8647 1.7539
a 8646 8650 8.9294
a 8647 8646 1.7539
a 8647 9100 9.049
a 8647 8104 3.2717
a 8648 11488 7.341
a 8648 8646 2.9066
a 8648 13380 423.7527
a 8649 8103 1.0886
a 8649 8518 3.7613
a 8649 12557 1.6141
a 8650 8104 4.7455
a 8650 8103 7.4736
a 8651 7300 1.1045
a 8651 7298 8.7062
a 8651 7301 9.4723
a 8652 8653 17.7297
a 8653 8541 35.5817
a 8653 8652 3.8678
a 8653 11912 1.4378
a 8654 1102 1.1945
a 8654 10002 1.5012
a 8655 2301 1.6769
a 8656 8658 1.8115
a 8656 8657 4.7693
a 8656 5338 12.0254
a 8657 10968 2.0873
a 8657 8656 50.9234
a 8657 10964 123.9292
a 8658 8656 1.8115
a 8658 10972 2.3126
a 8658 5316 217.2811
a 8659 11200 9.3586
a 8660 4238 17.941
a 8661 7801 0.9619
a 8662 8663 7.2698
a 8663 9855 10.8238
a 8663 3907 10.2197
a 8663 8662 7.2698
a 8664 12579 6.8197
a 8664 2963 5.6678
a 8665 1008 2.3429
a 8665 13153 3.5755
a 8665 8163 12.4099
a 8666 1268 3.2602
a 8667 5243 3.4603
a 8667 8666 3.3214
a 8668 11477 0.4075
a 8668 10442 0.7682
a 8668 8531 18.6379
a 8669 660 2.0966
a 8669 9867 3.1687
a 8670 192 6.1063
a 8670 191 10.7626
a 8670 193 4.9334
a 8671 11063 1.8403
a 8671 11062 0.8014
a 8672 7351 133.9473
a 8672 12651 2.7036
a 8672 8673 4.505
a 8673 8672 4.505
a 8673 12159 0.7452
a 8673 4054 10.7446
a 8674 4083 1.129
a 8675 4127 1.2211
a 8675 10919 93.5079
a 8676 4125 6.4159
a 8677 589 7.4311
a 8677 590 27.7167
a 8677 11938 17.5471
a 8678 574 8.3664
a 8678 8682 4.9961
a 8678 8679 18.9245
a 8679 296 6.8206
a 8679 13336 126.1779
a 8679 8678 162.8036
a 8679 8684 6.8328
a 8680 8681 339.8529
a 8680 14 20.3342
a 8680 3002 50.959
a 8680 296 6.6715
a 8681 297 7.9819
a 8681 8680 6.4375
a 8681 303 20.2939
a 8681 3105 18.9043
a 8682 8678 4.9961
a 8682 8683 11.2975
a 8682 3031 78.3121
a 8683 2417 14.0011
a 8683 8682 11.2975
a 8683 8684 7.9934
a 8684 8683 7.9934
a 8684 301 20.3033
a 8684 8679 6.8328
a 8684 300 534.2728
a 8685 8807 5.6952
a 8685 12281 1.0937
a 8686 12221 0.6732
a 8686 10913 16.6802
a 8687 2666 0.3614
a 8687 8689 62.4992
a 8687 2704 22.1306
a 8688 8690 3.6036
a 8689 8690 1.8504
a 8689 11039 8.5932
a 8689 8687 5.9054
a 8690 10931 1.5516
a 8690 8689 17.114
a 8690 8688 3.6036
a 8691 11594 4.963
a 8691 2670 9.3701
a 8691 2705 11.1931
a 8692 11594 2.6192
a 8693 2709 14.5447
a 8694 8375 4.3265
a 8695 3961 3.1874
a 8696 2668 2.4206
a 8697 2669 4.9478
a 8697 8698 4.6814
a 8697 2668 10.9368
a 8698 8697 4.6814
a 8698 8706 8.3606
a 8698 2699 11.1298
a 8699 11362 3.9204
a 8699 12591 10.0678
a 8699 11503 10.6632
a 8700 8703 5.9674
a 8700 8702 1.5106
a 8700 12591 2.4602
a 8701 4007 42.0098
a 8701 11848 64.0776
a 8701 11248 3.4078
a 8702 8705 5.9594
a 8702 8700 45.1221
a 8702 13185 1.435
a 8703 13184 1.9166
a 8703 8700 5.9674
a 8703 8705 1.5113
a 8703 11848 92.5308
a 8704 13185 1.1805
a 8704 11666 3.3379
a 8704 12007 1.7532
a 8705 12015 10.8769
a 8705 8702 73.7557
a 8705 11847 1.435
a 8705 8703 1.5113
a 8706 8707 5.063
a 8706 2704 12.4891
a 8706 8698 25.026
a 8706 2664 5.6038
a 8707 11604 475.6401
a 8707 8706 5.063
a 8707 2634 9.383
a 8707 2663 55.5555
a 8708 1666 4.0307
a 8708 9817 27.2758
a 8708 4623 4.0118
a 8709 135 3.0276
a 8710 3251 50.7809
a 8710 10144 6.7111
a 8711 2356 0.7711
a 8711 12361 9.3975
a 8711 6893 6.8062
a 8712 6048 2.3832
a 8712 8713 2.0894
a 8712 8278 1.9253
a 8712 6049 40.1216
a 8713 8712 2.0894
a 8714 6946 1.9958
a 8714 12312 117.5019
a 8714 2355 2.6402
a 8715 10142 4.9118
a 8716 8717 14.3258
a 8716 8609 6.575
a 8717 2777 6.4375
a 8717 8716 14.3258
a 8718 5933 4.9673
a 8719 8720 7.4013
a 8720 8723 128.561
a 8720 9004 12.1298
a 8720 8719 2.1593
a 8721 8724 4.0327
a 8722 12644 5.3986
a 8723 12644 5.0314
a 8723 8720 3.227
a 8723 3310 50.8126
a 8724 8721 11.2485
a 8724 4140 3.2782
a 8724 12644 2.057
a 8725 2079 10.4285
a 8726 7300 0.6084
a 8727 7301 1.6935
a 8728 8535 0.954
a 8728 7414 3.0838
a 8729 7701 0.635
a 8729 7700 3.479
a 8729 13212 5.0854
a 8730 13104 0.3766
a 8731 11189 8.3714
a 8732 13178 13.9904
a 8732 3907 6.0883
a 8732 3795 12.3854
a 8733 3828 3.6583
a 8734 4762 11.8325
a 8734 4608 7.339
a 8735 9642 7.0769
a 8735 12046 10.3565
a 8736 4727 5.6405
a 8736 8737 10.5098
a 8737 6971 6.7248
a 8737 4635 2.1415
a 8737 8738 23.0494
a 8737 8736 10.5098
a 8738 6891 0.6638
a 8738 4741 7.6183
a 8739 8959 4.1069
a 8740 8744 2.0995
a 8740 8741 3.6468
a 8740 8237 15.2568
a 8741 8959 2.4307
a 8741 8740 3.6468
a 8741 8235 24.1337
a 8742 8744 2.2032
a 8743 8744 2.6186
a 8744 8740 2.0995
a 8744 8742 2.2032
a 8744 8743 2.6186
a 8745 10489 31.4258
a 8745 8989 13.037
a 8745 7799 13.3128
a 8746 12337 0.3766
a 8746 5525 3.4574
a 8746 5689 5.9119
a 8747 7185 9.6703
a 8748 13102 2.4322
a 8749 13102 62.8431
a 8750 8929 3.1025
a 8750 7304 45.7495
a 8751 8752 6.0847
a 8752 8751 6.0847
a 8752 7680 10.3226
a 8753 8451 6.6175
a 8753 7305 14.189
a 8754 12746 2.7569
a 8754 11889 2.2939
a 8755 750 63.8525
a 8755 124 14.0285
a 8756 8795 4.0241
a 8756 10146 17.3753
a 8757 10146 36.9034
a 8757 11298 9.648
a 8758 7283 72.1788
a 8759 8763 72.1778
a 8759 7428 37.7026
a 8759 4807 7.4081
a 8760 6931 71.3617
a 8761 7425 3.7822
a 8761 8776 2.7468
a 8761 8762 16.5089
a 8762 7426 113.9478
a 8762 8761 16.5089
a 8762 4786 5.2049
a 8763 8765 10.8454
a 8763 8764 5.1595
a 8763 8759 6.0041
a 8764 8763 5.1595
a 8764 6936 2.9909
a 8764 7428 572.7739
a 8765 8763 10.8454
a 8765 4784 4.0572
a 8765 6937 10.4069
a 8766 8767 3.5057
a 8766 4787 13.0997
a 8766 7496 9.1793
a 8767 7497 3.767
a 8767 8766 3.5057
a 8767 7496 13.3258
a 8768 6937 0.9936
a 8768 6939 1.4371
a 8769 11667 22.6296
a 8770 4785 3.6706
a 8770 4788 7.2143
a 8770 7429 23.4252
a 8771 4785 5.2481
a 8772 5335 1.1614
a 8772 5372 24.4432
a 8772 11735 14.4554
a 8773 11241 4.7693
a 8773 11835 212.4797
a 8773 11759 8.1994
a 8774 3541 13.4006
a 8774 11836 2.2327
a 8774 3603 2.795
a 8775 5376 70.5051
a 8775 5337 8.4449
a 8775 5334 10.458
a 8775 13484 3.3329
a 8776 8761 2.7468
a 8777 10095 18.4054
a 8777 7363 48.2951
a 8777 7504 290.7137
a 8778 1330 23.2894
a 8778 8777 4.3286
a 8778 10095 4.2005
a 8779 4269 6.172
a 8780 2222 4.1234
a 8781 11836 14.3489
a 8781 11735 3.8167
a 8781 5372 23.3676
a 8782 1224 31.2924
a 8782 13534 20.4048
a 8783 11436 15.7291
a 8784 6947 5.3633
a 8784 10884 6.9746
a 8784 8911 397.1432
a 8785 7764 1.7028
a 8786 3960 3.6734
a 8786 4074 427.4725
a 8787 3778 1.0757
a 8788 1222 1.7957
a 8788 13009 8.7739
a 8788 9891 2.7742
a 8789 6788 5.508
a 8789 6787 7.7666
a 8789 6786 3.289
a 8790 6786 4.0111
a 8791 8196 0.5162
a 8791 8210 2.2248
a 8791 8206 280.0777
a 8792 8205 7.2684
a 8792 12177 2.0563
a 8792 8189 3.9139
a 8793 5559 6.5729
a 8794 11149 0.2772
a 8794 4034 12.4351
a 8795 12213 7.2468
a 8796 8033 14.5109
a 8797 9430 34.5024
a 8797 7487 3.7584
a 8798 13616 5.0263
a 8798 8799 10.1066
a 8798 8028 8.7106
a 8799 8026 10.2679
a 8799 12006 113.9019
a 8799 8798 10.1066
a 8800 6959 20.0974
a 8800 11334 1.7287
a 8801 8804 2.7734
a 8801 13393 13.1501
a 8801 13395 2.5027
a 8802 13382 38.2187
a 8802 11202 21.726
a 8802 13390 2.7662
a 8803 8032 4.0882
a 8804 8032 0.594
a 8804 11589 15.8573
a 8804 8801 2.7734
a 8805 12592 0.6214
a 8805 13265 0.6466
a 8806 3251 2.471
a 8806 8936 16.2
a 8807 8806 5.4058
a 8807 9297 11.7266
a 8808 11487 3.852
a 8809 8813 1.1232
a 8809 8812 6.9307
a 8810 10922 0.2822
a 8810 11764 3.3394
a 8810 11757 6.5268
a 8811 8815 2.5769
a 8812 8809 6.9307
a 8812 8814 23.1068
a 8812 8815 4.3495
a 8813 7762 171.5282
a 8813 8814 10.2031
a 8814 8813 10.2031
a 8814 11487 0.1382
a 8814 8812 6.2215
a 8815 8811 2.5769
a 8815 8812 4.3495
a 8815 10922 9.381
a 8815 11146 4.8118
a 8816 13559 0.329
a 8816 277 8.8589
a 8816 8817 3.6634
a 8817 10943 41.0127
a 8817 2184 2.2608
a 8817 8816 3.6634
a 8818 8819 26.986
a 8818 13559 135.1662
a 8818 12740 0.8561
a 8819 13559 3.6367
a 8819 8818 2.8368
a 8819 10943 4.7225
a 8820 4099 12.0277
a 8821 8988 1.3781
a 8821 101 23.3352
a 8822 825 17.5536
a 8822 9990 14.2128
a 8823 12601 0.7243
a 8823 7857 3.6929
a 8823 12602 0.7646
a 8824 2643 0.4709
a 8824 2637 4.0313
a 8824 12019 7.3274
a 8825 8826 3.775
a 8825 2086 14.2466
a 8826 2091 4.4474
a 8826 2083 11.4811
a 8826 2089 3.528
a 8826 8825 3.775
a 8827 8828 9.0749
a 8828 2102 8.4103
a 8828 892 3.7836
a 8828 8827 9.0749
a 8829 3992 2.358
a 8829 3645 5.8824
a 8829 9066 7.1834
a 8830 10446 26.3693
a 8830 8530 30.4251
a 8831 8830 3.4337
a 8831 8830 68.3144
a 8832 7407 0.869
a 8832 7411 79.5327
a 8832 3218 5.0033
a 8833 7404 21.5437
a 8833 865 1.0051
a 8834 4384 14.9854
a 8835 3192 4.6778
a 8836 6946 3.6598
a 8836 9065 1.062
a 8836 13266 1.7129
a 8837 9417 0.6415
a 8837 2081 13.8413
a 8837 11578 35.7545
a 8838 3650 4.7246
a 8838 3683 4.5806
a 8838 3902 26.976
a 8838 3676 12.942
a 8839 3676 4.9961
a 8839 3644 9.4774
a 8839 3650 6.349
a 8839 3685 10.9361
a 8840 3672 6.3511
a 8840 3676 4.6519
a 8840 3734 13.8218
a 8841 8842 2.6582
a 8842 3799 4.7398
a 8842 8841 2.6582
a 8842 3773 15.7464
a 8843 10031 391.9694
a 8843 3619 6.9516
a 8843 3799 6.3958
a 8844 3968 5.5411
a 8844 8845 4.1962
a 8844 3895 16.5247
a 8845 8844 4.1962
a 8845 4049 5.7514
a 8845 3675 9.8827
a 8846 3633 13.2905
a 8846 3947 17.8992
a 8846 3968 5.3698
a 8847 8856 1.3277
a 8847 8864 1.2758
a 8847 8883 22.7347
a 8848 8856 3.2371
a 8848 8883 1.301
a 8848 8871 1.3162
a 8849 8865 2.3753
a 8849 8865 22.6879
a 8849 7489 23.5196
a 8850 8881 3.2206
a 8850 8854 3.011
a 8850 8857 1.3932
a 8851 8867 1.6762
a 8852 8875 1.6193
a 8853 8864 3.2522
a 8853 8883 1.2881
a 8853 8944 100.8067
a 8854 8850 3.011
a 8854 8858 1.4594
a 8854 8882 48.5924
a 8855 8862 5.1926
a 8855 8857 1.4695
a 8855 8858 1.5242
a 8856 8848 3.2371
a 8856 8857 1.265
a 8856 8847 1.3277
a 8857 8850 1.3932
a 8857 8856 1.265
a 8857 8871 3.2285
a 8857 8855 1.4695
a 8858 8854 1.4594
a 8858 8859 1.5142
a 8858 8855 1.5242
a 8858 8882 40.9273
a 8859 8870 4.8139
a 8859 8858 1.5142
a 8859 8873 1.4702
a 8860 8868 2.1614
a 8860 8872 1.512
a 8860 8873 61.4046
a 8861 8867 5.413
a 8861 5328 3.3804
a 8861 11113 13.819
a 8862 8879 1.458
a 8862 8944 1.5127
a 8862 8855 5.1926
a 8863 5328 6.7406
a 8863 13481 1.6279
a 8863 13480 1.5876
a 8864 8847 1.2758
a 8864 8944 4.8519
a 8864 8853 3.2522
a 8865 8849 2.3753
a 8865 8849 22.6879
a 8865 13307 5.971
a 8866 8869 9.3766
a 8867 8861 5.413
a 8867 8851 1.6762
a 8867 12642 4.1256
a 8868 8860 2.1614
a 8868 8877 1.5358
a 8868 8879 1.7215
a 8868 10203 4.0946
a 8869 12020 2.083
a 8869 6003 277.0381
a 8869 8875 4.4899
a 8869 8866 9.3766
a 8870 8859 4.8139
a 8870 8882 1.5271
a 8870 8880 18.5373
a 8871 8857 3.2285
a 8871 8848 1.3162
a 8871 8881 1.4378
a 8872 8877 2.1161
a 8872 8880 1.5826
a 8872 8860 1.512
a 8873 8859 1.4702
a 8873 8879 2.183
a 8873 8860 1.7208
a 8874 8875 595.0533
a 8875 8852 1.6193
a 8875 8869 4.4899
a 8875 8874 18.3334
a 8876 13481 7.574
a 8877 8872 9.9428
a 8877 8868 1.5358
a 8877 8880 3.6922
a 8878 7695 4.6397
a 8879 8868 1.7215
a 8879 8862 1.458
a 8879 8873 2.183
a 8880 8872 1.5826
a 8880 8870 1.4436
a 8880 8877 3.6922
a 8881 8850 3.2206
a 8881 8871 4.4341
a 8881 11647 3.1831
a 8882 8858 4.8139
a 8882 8870 1.5271
a 8882 8854 6.377
a 8883 8847 3.245
a 8883 8853 1.2881
a 8883 8848 1.301
a 8884 4329 2.0995
a 8885 10716 1.553
a 8885 10718 1.1578
a 8885 8889 1.6186
a 8886 8887 0.3859
a 8886 8889 0.3528
a 8886 10718 1.5854
a 8887 8886 0.3859
a 8888 4380 3.0168
a 8888 4335 1.6423
a 8888 12963 0.7682
a 8889 12959 0.3881
a 8889 8886 0.3528
a 8889 8885 1.6186
a 8890 8898 3.7577
a 8890 8894 1.1736
a 8890 5124 14.3172
a 8891 8895 3.2666
a 8892 4390 2.2262
a 8892 4515 4.1753
a 8892 4359 9.9403
a 8893 5114 2.237
a 8893 8901 3.2983
a 8893 5125 17.3318
a 8894 8890 14.756
a 8894 8905 20.7168
a 8894 8897 4.6699
a 8895 8891 3.2666
a 8895 8900 12.8045
a 8895 5119 4.5684
a 8896 8901 6.6211
a 8897 8894 4.6699
a 8898 8890 32.3843
a 8899 5119 4.4158
a 8899 13005 6.8026
a 8899 10539 17.9165
a 8900 8895 12.8045
a 8901 8896 6.6211
a 8901 8905 8.4607
a 8901 8893 3.2983
a 8902 9363 10.3306
a 8902 8903 150.4755
a 8902 9289 5.4504
a 8903 8902 6.0314
a 8903 6521 1.1124
a 8903 9173 4.1184
a 8904 9163 3.6454
a 8904 12692 0.2513
a 8904 11279 1.5372
a 8905 8894 0.3895
a 8905 9171 12.9471
a 8905 8901 8.4607
a 8906 6618 10.3831
a 8906 6653 35.9683
a 8906 6678 23.125
a 8907 8908 1.4134
a 8907 545 13.3769
a 8907 549 309.6143
a 8908 8907 1.4134
a 8909 2005 47.7022
a 8909 8071 3.3386
a 8909 7582 9.1526
a 8910 7464 3.073
a 8910 1634 1.0094
a 8911 8940 5.0069
a 8911 11665 43.4775
a 8911 8784 7.0178
a 8912 6029 0.7265
a 8913 4111 1.9138
a 8914 9500 8.6414
a 8914 6922 17.2354
a 8914 1539 23.9213
a 8914 20 8.6767
a 8915 585 17.1108
a 8915 3127 4.5835
a 8915 3053 6.1085
a 8916 8919 4.8564
a 8917 11586 11.1463
a 8917 3762 0.2124
a 8917 3794 8.9705
a 8918 3952 3.8282
a 8918 2677 3.7915
a 8918 8920 10.9728
a 8919 5233 4.3358
a 8919 8645 1.2053
a 8919 8916 4.8564
a 8920 8918 10.9728
a 8921 2680 17.3851
a 8922 2648 5.2178
a 8923 7642 8.6429
a 8923 605 10.206
a 8923 7643 8.4276
a 8924 8925 7.6824
a 8924 609 9.6869
a 8924 7643 4.3272
a 8925 8924 236.3609
a 8925 9945 3.1622
a 8926 8925 7.915
a 8926 623 6.8486
a 8927 7578 9.0101
a 8928 8517 5.8054
a 8928 1526 8.6018
a 8929 622 7.9985
a 8929 1493 23.1948
a 8930 7716 12.8686
a 8931 11916 2.4458
a 8931 4061 0.9792
a 8932 8934 1.2672
a 8932 12135 4.0118
a 8933 13017 11.1017
a 8934 8933 1.1866
a 8934 12136 2.6302
a 8935 3958 17.4006
a 8935 3635 5.0882
a 8935 8335 1.6294
a 8936 8937 1.5876
a 8936 8806 16.2
a 8937 8938 6.5354
a 8937 8938 19.0714
a 8938 8937 19.0714
a 8938 8261 8.375
a 8939 8940 2.0923
a 8939 12662 9.882
a 8939 9513 44.2462
a 8940 8911 54.2526
a 8940 8939 2.0923
a 8940 6947 5.8003
a 8941 9509 2.3263
a 8941 9514 2.6071
a 8941 6948 5.1307
a 8942 4256 1.0289
a 8943 6006 7.421
a 8944 8862 1.5127
a 8944 8864 1.35
a 8944 8853 4.4726
a 8944 10203 6.5959
a 8945 8947 4.5036
a 8945 8946 10.9649
a 8946 2016 13.2012
a 8946 8949 96.3548
a 8946 8945 10.9649
a 8947 8948 4.8736
a 8947 8945 4.5036
a 8947 2812 45.4451
a 8947 8949 289.0865
a 8948 2811 12.0269
a 8948 8950 2.8282
a 8948 8947 1.2938
a 8949 8946 3.479
a 8949 3062 3.8138
a 8949 8947 13.122
a 8950 13018 2.3494
a 8950 8948 2.8282
a 8950 2171 11.0066
a 8950 3062 10.5818
a 8951 2920 7.7767
a 8951 2165 11.1254
a 8951 3163 11.3436
a 8952 7662 3.7315
a 8952 2990 15.6708
a 8952 2920 2.9477
a 8953 8954 2.2306
a 8954 8953 2.2306
a 8954 8955 3.8405
a 8954 3147 21.2644
a 8955 8954 3.8405
a 8955 2404 2.9311
a 8955 2991 10.021
a 8956 7598 3.5878
a 8957 6283 3.0629
a 8957 6290 3.4114
a 8957 6291 8.059
a 8958 6282 6.323
a 8958 6290 4.3157
a 8958 6289 4.5202
a 8959 12569 1.1189
a 8959 8741 2.4307
a 8959 8739 4.1069
a 8960 373 7.6176
a 8960 7771 12.3941
a 8960 681 10.517
a 8961 8968 2.6712
a 8962 8961 9.1216
a 8962 13353 89.4278
a 8963 10837 12.2717
a 8964 12145 1.4299
a 8964 8963 16.3546
a 8965 10821 6.2102
a 8965 11156 1.4256
a 8965 9575 16.1014
a 8966 3522 0.8237
a 8966 9951 30.587
a 8967 12727 8.7401
a 8967 7284 22.1054
a 8967 224 12.0478
a 8968 9690 32.9278
a 8969 8962 3.2004
a 8969 10094 7.6097
a 8970 8971 99.2259
a 8970 8082 9.5198
a 8971 8970 7.2288
a 8971 549 15.2395
a 8971 1284 7.3476
a 8972 12275 0.9806
a 8972 7737 25.3562
a 8973 9749 7.069
a 8973 3001 8.3189
a 8973 1070 11.1449
a 8974 1025 3.9269
a 8974 1030 4.032
a 8974 7650 16.4138
a 8975 1865 2.7734
a 8976 3301 1.8094
a 8977 3299 1.6978
a 8978 3282 1.4364
a 8979 3570 10.517
a 8980 3407 3.587
a 8981 3397 1.6517
a 8982 11718 1.3392
a 8982 11719 4.8629
a 8982 11717 4.0018
a 8983 8984 3.5158
a 8983 6862 2.6503
a 8983 8985 1.8562
a 8983 11718 1.4371
a 8984 6858 18.1895
a 8984 11719 1.4414
a 8984 8983 3.5158
a 8985 6860 2.659
a 8985 6858 10.5619
a 8985 8987 1.9613
a 8985 8983 8.5277
a 8986 3390 3.5784
a 8986 12203 1.0433
a 8986 6859 4.1486
a 8987 8985 7.7434
a 8987 3389 3.5237
a 8987 6861 2.6683
a 8988 8821 1.3781
a 8988 785 2.79
a 8988 10150 1136.0144
a 8989 8990 17.0244
a 8989 13141 16.9164
a 8989 8745 93.3024
a 8990 9550 5.1034
a 8990 8989 17.0244
a 8990 9554 3.9398
a 8991 9546 3.3545
a 8991 9554 3.559
a 8991 10364 4.9752
a 8992 5841 338.2135
a 8993 2103 3.7858
a 8993 7040 3.7843
a 8993 2097 22.1829
a 8994 10162 31.027
a 8994 5244 17.2325
a 8995 8996 4.1904
a 8995 8121 5.6592
a 8995 8119 13.23
a 8996 245 7.2511
a 8996 8995 4.1904
a 8997 2747 0.6797
a 8998 2747 4.1076
a 8999 2782 2.921
a 9000 6737 2.8166
a 9000 9077 3.8462
a 9000 10625 1329.4541
a 9001 10205 0.6739
a 9001 3311 6.0696
a 9001 9002 22.2257
a 9002 3311 4.95
a 9002 4140 2.8534
a 9002 9001 22.2257
a 9003 4282 3.0096
a 9004 8720 102.3773
a 9004 9044 8.0302
a 9004 9005 20.1564
a 9005 9004 20.1564
a 9006 4272 0.409
a 9006 13253 6.4845
a 9006 7912 5.611
a 9007 11875 4.788
a 9007 5776 4.4827
a 9007 5775 16.5735
a 9008 9009 4.1292
a 9008 5776 9.257
a 9008 5776 149.7909
a 9009 9011 3.1435
a 9009 9008 4.1292
a 9009 5775 46.3979
a 9010 5766 4.1033
a 9010 5766 12.1399
a 9010 5767 3.5546
a 9011 5760 3.1846
a 9011 9009 3.1435
a 9011 5761 8.2246
a 9012 6195 8.249
a 9013 6229 4.6411
a 9014 11536 3.0398
a 9014 9015 3.1666
a 9014 9016 7.0963
a 9015 9014 3.1666
a 9015 7840 16.3498
a 9015 13422 7.637
a 9016 9014 7.0963
a 9017 11511 2.4702
a 9017 11212 10.5048
a 9017 9018 14.4626
a 9018 9017 14.4626
a 9019 4048 8.6537
a 9020 3857 0.6084
a 9021 9023 3.4157
a 9021 7677 12.5683
a 9021 9880 5.1012
a 9022 9024 4.9579
a 9022 1034 7.4722
a 9022 9888 2.4804
a 9023 7677 10.0966
a 9023 7679 134.7905
a 9023 9021 15.0666
a 9024 3132 378.3555
a 9024 9022 63.644
a 9025 7374 7.9034
a 9025 7374 3.3833
a 9025 6653 35.8474
a 9026 6869 4.3625
a 9026 9027 226.5551
a 9026 6870 2.718
a 9027 6874 2.304
a 9027 6476 3.7123
a 9027 9026 3.6576
a 9028 3674 0.7754
a 9029 12412 0.5134
a 9029 12297 2.7202
a 9029 12410 3.9449
a 9030 9736 34.6061
a 9030 9947 5.2636
a 9031 9735 39.5993
a 9031 9030 2.3357
a 9032 747 1.4386
a 9032 9033 2.6935
a 9033 13413 29.0828
a 9034 9036 3.1889
a 9034 1012 3.672
a 9034 1021 4.0032
a 9034 1004 20.407
a 9035 965 3.5546
a 9035 959 3.451
a 9035 973 6.5851
a 9035 895 17.5003
a 9036 9034 3.1889
a 9036 1020 3.6115
a 9036 1013 26.2243
a 9036 963 3.7174
a 9037 10232 41.1735
a 9038 7712 23.557
a 9038 7714 12.2983
a 9039 6027 8.5329
a 9040 9044 4.999
a 9041 4568 19.2427
a 9042 1456 9.2786
a 9042 1455 11.2615
a 9042 1453 6.8213
a 9043 11420 16.7393
a 9043 5341 11.3328
a 9044 12401 14.8234
a 9044 9004 8.0302
a 9044 9040 133.2149
a 9045 8340 3.8081
a 9045 11680 10.6798
a 9046 6415 31.6315
a 9046 6577 3.289
a 9046 7324 3.8477
a 9047 8484 3.6655
a 9047 6663 11.8078
a 9047 8471 4.0277
a 9048 6460 2.0182
a 9048 6623 10.3392
a 9048 9085 3.5309
a 9049 9170 3.8779
a 9049 9153 2.0686
a 9049 9085 45.2671
a 9050 6460 0.9173
a 9050 6626 4.1234
a 9050 9051 4.3812
a 9051 9050 4.3812
a 9052 548 2.543
a 9052 1245 0.5919
a 9052 9053 133.612
a 9053 11245 1.5883
a 9053 8071 2.8699
a 9053 9052 9.3226
a 9054 5241 3.1651
a 9054 12277 0.5436
a 9054 10062 35.9578
a 9055 1071 9.491
a 9055 7574 39.0195
a 9055 7575 11.0599
a 9056 11150 4.4179
a 9057 9058 2.1823
a 9058 12647 3.8462
a 9058 9057 2.1823
a 9058 9059 2.2925
a 9059 9058 2.2925
a 9060 12553 0.517
a 9060 4251 5.4461
a 9061 12203 1.3838
a 9061 3388 26.5471
a 9061 5298 5.1984
a 9062 5295 278.2681
a 9062 13268 13.3927
a 9062 9063 11.3515
a 9063 13268 1.5638
a 9063 11417 2.7526
a 9063 9062 119.1129
a 9064 13269 1.152
a 9064 9065 7.3469
a 9064 11417 3.8938
a 9065 8836 1.062
a 9065 9064 7.3469
a 9065 3368 12.0226
a 9066 8829 7.1834
a 9067 6384 12.0938
a 9068 253 9.6998
a 9068 65 2.0743
a 9069 6959 1.8029
a 9069 6924 23.9522
a 9070 12499 0.3406
a 9071 7966 5.6549
a 9071 2934 7.7004
a 9072 7515 4.4107
a 9072 9656 3.7548
a 9073 1870 4.0356
a 9073 9697 365.0157
a 9074 12328 8.3837
a 9074 7277 9.0086
a 9075 6737 3.2983
a 9075 6612 23.8871
a 9075 12044 10.453
a 9076 9077 16.3145
a 9077 6595 1.1729
a 9077 9000 3.8462
a 9077 9076 16.3145
a 9078 291 8.46
a 9078 12293 1.1664
a 9079 3769 15.5066
a 9080 3717 9.2275
a 9081 10660 0.7942
a 9081 7087 2.2522
a 9081 12104 10.2038
a 9082 7758 14.899
a 9082 6791 7.0027
a 9083 8910 1.5761
a 9084 9083 1.0246
a 9084 8384 1.9282
a 9085 9049 9.0569
a 9085 9170 6.4022
a 9085 9048 3.5309
a 9086 8624 4.9651
a 9087 7930 17.9193
a 9087 9088 19.0192
a 9087 9090 7.0754
a 9088 9087 0.6437
a 9088 7811 1.0483
a 9088 12141 11.8202
a 9089 7811 1.7525
a 9089 12141 1.8554
a 9089 9092 7.8646
a 9090 9087 32.6108
a 9091 7811 7.889
a 9091 9094 7.9236
a 9091 9092 1.692
a 9092 9095 7.8394
a 9092 9089 7.8646
a 9092 9093 3.8599
a 9092 9091 7.8563
a 9093 9092 3.8599
a 9094 9095 1.4371
a 9094 9091 7.9236
a 9094 11996 34.5382
a 9095 9094 1.4371
a 9095 9092 7.8394
a 9095 9096 3.8686
a 9096 9095 17.9342
a 9097 9098 30.6247
a 9098 9097 2.435
a 9098 9101 1.7496
a 9098 9099 16.529
a 9099 9098 16.529
a 9100 8104 13.6836
a 9100 9101 1.7834
a 9100 8647 133.1513
a 9101 9098 1.7496
a 9101 8030 5.7031
a 9101 9100 1.7834
a 9102 8102 89.8907
a 9103 8029 3.5388
a 9103 8031 9.4061
a 9103 9104 345.1575
a 9104 8031 2.6971
a 9104 8105 189.7257
a 9105 12039 6.9178
a 9105 2403 4.073
a 9105 2907 4.5281
a 9106 1532 167.1407
a 9106 155 12.8023
a 9106 1533 5.0976
a 9107 5863 2.8908
a 9107 5867 2.4898
a 9107 5666 14.035
a 9107 11269 15.0516
a 9108 3931 3.7123
a 9108 5994 1081.5889
a 9108 3980 3.2083
a 9109 13167 5.7614
a 9109 7224 40.7774
a 9110 11355 0.4997
a 9110 2496 4.5144
a 9110 7639 23.8536
a 9111 9184 2.6179
a 9111 7094 11.9916
a 9111 3638 15.5765
a 9112 9582 0.671
a 9112 8415 3.0456
a 9113 8654 1.0152
a 9113 8422 75.2527
a 9114 3315 11.0419
a 9115 12365 0.9634
a 9115 9114 61.027
a 9116 3766 5.1228
a 9116 11624 2.525
a 9116 11626 0.9266
a 9117 1651 3.7267
a 9117 1637 3.4546
a 9118 240 4.5202
a 9118 9121 5.7413
a 9119 9118 7.1496
a 9119 9120 7.7501
a 9120 242 41.0448
a 9120 9119 87.1389
a 9121 8996 1.2233
a 9121 9118 5.7413
a 9122 11828 11.2522
a 9123 7857 3.5741
a 9123 9124 2.4034
a 9123 13427 1.877
a 9124 9123 2.4034
a 9125 3917 7.5715
a 9125 3917 50.3951
a 9125 9645 7.7767
a 9126 10429 4.6138
a 9126 5827 7.9762
a 9126 12625 6.1567
a 9127 5833 7.308
a 9128 6410 6.1157
a 9128 6451 6.4555
a 9128 12630 100.3456
a 9129 4166 4.1753
a 9129 6524 4.5223
a 9129 5041 116.0686
a 9130 4163 2.641
a 9130 9130 4.7513
a 9131 9276 5.315
a 9131 9154 16.8307
a 9131 6764 14.616
a 9132 6396 3.2818
a 9132 6453 75.1961
a 9132 9325 14.6035
a 9133 6391 1.427
a 9134 6684 9.9835
a 9135 6694 7.0776
a 9135 6543 11.1448
a 9135 10636 5.4972
a 9136 6556 1.2686
a 9137 8488 2.8368
a 9137 11791 7.2986
a 9137 9580 12.5395
a 9138 6474 4.8456
a 9139 6474 4.5425
a 9139 13531 0.8093
a 9140 11787 1.3831
a 9140 6461 26.8843
a 9140 6595 12.9672
a 9141 9595 29.3256
a 9141 6461 15.7522
a 9141 9594 3.0002
a 9142 6454 3.3473
a 9143 7367 8.2879
a 9144 6686 25.7007
a 9144 9203 3.6252
a 9144 6492 4.3524
a 9145 6541 3.678
a 9145 6652 4.2624
a 9146 13531 0.8482
a 9146 9147 2.7994
a 9147 13532 2.3463
a 9147 9145 5.4346
a 9148 12696 4.4834
a 9148 6557 616.0154
a 9148 6472 5.0242
a 9149 11920 4.8758
a 9149 6523 19.9224
a 9149 4157 7.5434
a 9150 4170 2.2248
a 9150 6590 7.6522
a 9150 9151 18.9294
a 9151 9150 5.5793
a 9152 9321 4.2854
a 9153 9155 19.4442
a 9153 9049 51.2663
a 9153 11423 8.1778
a 9154 9131 16.8307
a 9155 9153 3.9384
a 9155 9156 97.8749
a 9155 9170 1.867
a 9155 9180 23.7679
a 9156 9155 2.8253
a 9157 6440 0.8957
a 9158 6433 20.9039
a 9159 6582 3.7764
a 9160 11505 5.9076
a 9161 6417 16.4419
a 9161 6603 8.9935
a 9161 8426 8.131
a 9162 8488 3.5482
a 9163 8904 3.6454
a 9163 6649 7.4405
a 9163 57 6.2395
a 9164 9166 4.4222
a 9164 11166 2.3148
a 9165 9167 3.6677
a 9166 9167 1.8346
a 9166 9164 13.5913
a 9167 9165 3.6677
a 9167 9166 8.0209
a 9167 9168 2.4106
a 9168 9167 2.4106
a 9169 6673 4.6318
a 9169 6603 10.2622
a 9169 6698 10.35
a 9170 9049 218.8539
a 9170 9155 1.867
a 9170 10661 5.9112
a 9170 9085 6.4022
a 9171 8905 0.8525
a 9171 9172 4.3747
a 9171 12688 6.0574
a 9172 9171 15.1655
a 9173 9278 6.9199
a 9173 8903 4.1184
a 9173 6649 4.5144
a 9173 11171 12.1521
a 9174 6629 9.7102
a 9174 9175 3.0319
a 9174 6550 13.122
a 9175 10694 48.9678
a 9175 9174 3.0319
a 9175 9176 3.5626
a 9176 9175 3.5626
a 9176 9328 4.7167
a 9176 10694 2.2939
a 9177 9328 4.1105
a 9178 9179 4.2293
a 9178 9365 6.6708
a 9178 9364 7.5744
a 9179 9178 4.2293
a 9179 9365 3.8398
a 9179 9364 3.3005
a 9180 9155 23.7679
a 9181 6598 2.1391
a 9181 10667 8.1245
a 9181 6558 16.6262
a 9182 13318 4.8413
a 9182 8455 9.5774
a 9183 9747 6.5844
a 9184 9111 2.6179
a 9184 7561 7.2907
a 9184 9185 6.7205
a 9185 9184 6.7205
a 9186 3783 2.3018
a 9186 3964 528.1627
a 9186 9187 5.5562
a 9187 3783 3.4877
a 9187 3921 39.9937
a 9187 9186 5.5562
a 9188 10623 21.8642
a 9188 9190 4.081
a 9188 9189 63.8489
a 9189 9188 6.7327
a 9190 9188 4.081
a 9190 6448 28.476
a 9190 6588 31.8226
a 9191 10691 0.355
a 9191 10695 151.2384
a 9191 9192 16.8949
a 9192 9191 5.3942
a 9193 6702 9.6151
a 9194 6421 1.1822
a 9195 6621 10.4587
a 9195 6570 16.1748
a 9195 6379 15.2698
a 9196 7683 437.9803
a 9196 12052 4.1357
a 9196 9197 8.4427
a 9197 10578 1.715
a 9197 9196 8.4427
a 9197 10552 2.7043
a 9198 739 1.859
a 9199 9198 1.9238
a 9199 8175 1.6279
a 9200 9953 3.9492
a 9200 7232 17.9784
a 9200 10294 380.2921
a 9201 475 4.3711
a 9201 471 4.6663
a 9201 9202 32.4605
a 9202 9201 32.4605
a 9202 133 7.4866
a 9202 476 15.2856
a 9203 6552 0.7121
a 9203 9146 407.4324
a 9204 8393 8.3448
a 9204 6571 6.4246
a 9204 11243 18.3823
a 9205 6486 0.7193
a 9205 9206 11.9395
a 9205 8397 94.1545
a 9206 9205 15.3706
a 9206 8397 25.822
a 9206 8390 2.1557
a 9207 7966 6.4454
a 9207 11911 1.543
a 9207 7681 7.0013
a 9208 8427 1.5732
a 9208 9209 4.8391
a 9208 3174 16.434
a 9208 7683 17.5493
a 9209 9208 4.8391
a 9209 9224 3.7872
a 9209 10559 5.8594
a 9210 10591 1.4162
a 9210 2977 46.5424
a 9210 10576 1.7935
a 9211 10572 1.8497
a 9211 4966 5.0371
a 9211 9214 4.9262
a 9212 9223 2.8001
a 9212 10573 0.8626
a 9212 10572 4.2394
a 9213 9214 5.1653
a 9213 10576 3.2825
a 9213 9215 7.0607
a 9214 9213 5.1653
a 9214 9211 4.9262
a 9214 10580 5.0897
a 9215 10593 1.7042
a 9215 9213 27.3695
a 9215 10581 3.0334
a 9216 10595 1.8101
a 9216 10593 1.6394
a 9216 9217 3.4733
a 9217 10596 1.6078
a 9217 10577 6.5988
a 9217 9216 3.4733
a 9218 10581 0.6782
a 9218 4967 1.8418
a 9218 10594 1.548
a 9219 9220 2.4574
a 9219 10594 1.4969
a 9219 10595 1.8151
a 9220 4963 1.7474
a 9220 10596 1.7575
a 9220 9219 2.4574
a 9221 9222 4.7801
a 9222 9221 4.7801
a 9222 61 13.1407
a 9223 9212 2.8001
a 9223 8429 3.3516
a 9223 10572 250.3351
a 9224 9209 3.7872
a 9225 10557 1.5091
a 9225 8433 5.7996
a 9225 10574 96.981
a 9226 2943 4.7765
a 9226 8433 3.6029
a 9227 9228 4.2754
a 9227 6387 3.7562
a 9227 6535 2.0491
a 9228 9227 4.2754
a 9228 9229 68.6619
a 9228 6584 2.9822
a 9229 6535 4.3229
a 9229 9231 3.4682
a 9229 9228 10.1336
a 9230 6647 1.7352
a 9230 9231 4.6901
a 9230 6535 2.8318
a 9231 9230 39.1503
a 9231 6522 1.7302
a 9231 9229 3.4682
a 9232 4172 295.8839
a 9233 8411 50.724
a 9233 11416 2.2529
a 9234 9240 14.3819
a 9234 9235 1.4191
a 9234 9238 6.2395
a 9235 9241 5.1638
a 9235 9234 1.4191
a 9235 9236 18.3651
a 9236 9243 5.3842
a 9236 9235 1.9015
a 9236 9237 1.6214
a 9237 10765 2.0002
a 9237 9236 1.6214
a 9237 11416 6.493
a 9238 9239 0.3701
a 9238 6806 4.5806
a 9238 9234 6.2395
a 9239 9240 1.3428
a 9239 9238 8.1429
a 9239 9242 3.1298
a 9240 9241 1.6258
a 9240 9239 1.3428
a 9240 9234 76.4918
a 9240 13435 2.4221
a 9241 9243 1.651
a 9241 9240 1.6258
a 9241 9235 5.1638
a 9241 9246 3.1428
a 9242 9239 3.1298
a 9242 9246 3.2364
a 9242 6803 5.089
a 9243 6804 1.6891
a 9243 9241 1.651
a 9243 9236 5.3842
a 9244 6810 2.3321
a 9244 9249 16.9845
a 9244 11418 4.2026
a 9245 9249 2.2198
a 9245 6810 3.047
a 9246 6805 3.4718
a 9246 9242 3.2364
a 9246 9241 3.1428
a 9247 9248 1.013
a 9247 9911 1.769
a 9247 6804 31.085
a 9247 11448 3.9902
a 9248 9247 1.013
a 9249 9245 2.2198
a 9249 9912 56.6077
a 9249 9244 3.5762
a 9249 9250 4.595
a 9250 6811 0.9619
a 9250 9903 48.0405
a 9250 9249 4.595
a 9251 9902 5.4802
a 9251 9253 4.158
a 9251 6812 42.741
a 9252 6812 2.5711
a 9252 9908 1.345
a 9252 6811 2.6885
a 9252 9256 488.9627
a 9253 9251 4.158
a 9253 9255 4.9313
a 9253 9254 6.763
a 9254 9915 5.0155
a 9254 9916 19.2271
a 9254 9253 6.763
a 9255 9904 1.1246
a 9255 9257 5.2805
a 9255 9253 4.9313
a 9256 8548 3.5258
a 9256 9252 9.0374
a 9256 6802 3.199
a 9257 9255 5.2805
a 9258 9904 1.5293
a 9259 10603 1.859
a 9259 7387 1.5962
a 9259 12717 4.9334
a 9260 11606 7.9322
a 9261 10604 1.3918
a 9261 7388 3.4502
a 9261 10606 3.6238
a 9262 9263 1.7402
a 9262 9269 10.9253
a 9262 10605 47.4601
a 9263 6767 25.0722
a 9263 9262 1.7402
a 9263 12793 2.2572
a 9264 6768 2.3789
a 9265 9267 3.1277
a 9265 8385 25.8701
a 9265 8387 0.8395
a 9266 11904 2.2097
a 9266 11725 9.8302
a 9266 9267 3.5611
a 9267 9265 3.1277
a 9267 9266 3.5611
a 9267 6766 1.6243
a 9268 9269 1.3867
a 9268 6769 3.9355
a 9268 9923 6.2244
a 9269 9268 1.3867
a 9269 12789 0.9914
a 9269 9262 10.9253
a 9270 10770 4.8596
a 9270 9273 6.8731
a 9270 12477 6.4727
a 9271 9273 2.4955
a 9271 10771 5.6002
a 9272 9275 2.4134
a 9272 9271 1.6783
a 9273 9271 2.4955
a 9273 9275 1.674
a 9274 7070 1.805
a 9274 9272 1.98
a 9274 7069 12.0225
a 9275 9272 2.4134
a 9275 9276 22.1574
a 9276 9131 5.315
a 9276 7070 0.6106
a 9277 9280 6.1042
a 9277 11921 3.5258
a 9277 9278 3.5388
a 9278 9277 3.5388
a 9278 9173 6.9199
a 9278 9281 258.4139
a 9279 9280 1.8324
a 9279 6427 10.607
a 9279 11921 77.8431
a 9280 9281 3.7282
a 9280 9279 1.8324
a 9280 9277 6.1042
a 9281 9280 3.7282
a 9281 59 12.9391
a 9281 9278 5.0494
a 9282 6573 4.1465
a 9282 6704 18.5119
a 9282 4168 5.0263
a 9283 11111 0.9554
a 9283 4156 2.1672
a 9283 10543 5.5008
a 9284 9288 5.1624
a 9284 11111 11.61
a 9284 13005 84.8089
a 9285 5113 5.5476
a 9286 7590 0.6876
a 9286 11110 1.8
a 9286 7592 5.8046
a 9287 10543 1.0274
a 9288 9284 5.1624
a 9288 10542 4.2372
a 9288 10543 4.0478
a 9289 10544 6.7987
a 9289 8902 5.4504
a 9289 6496 5.9774
a 9290 10743 31.5074
a 9290 10742 1.5732
a 9290 7373 6.1517
a 9291 7086 3.0838
a 9291 7321 4.5922
a 9291 10659 469.4427
a 9292 8623 3.6965
a 9292 8119 15.112
a 9292 11230 4.397
a 9293 2631 5.238
a 9293 890 40.371
a 9293 9808 18.9072
a 9294 10213 6.3986
a 9294 9295 7.7234
a 9294 9296 1.5581
a 9294 9297 1.4508
a 9295 9294 7.7234
a 9295 9296 9.3254
a 9295 9297 9.085
a 9296 9294 1.5581
a 9296 10215 10.5178
a 9296 9295 9.3254
a 9297 10214 2.1586
a 9297 9294 1.4508
a 9297 9295 9.085
a 9297 8807 11.7266
a 9298 39 303.8746
a 9298 2440 7.1359
a 9299 11428 0.4457
a 9299 9300 4.3934
a 9299 7267 6.1603
a 9300 13130 1.1477
a 9300 9299 47.752
a 9300 9310 1.8648
a 9301 9310 3.1752
a 9301 9304 1.9728
a 9301 9302 6.0883
a 9301 9308 14.7177
a 9302 9305 2.0851
a 9302 9301 6.0883
a 9302 9309 2.1564
a 9303 7267 9.1733
a 9303 9310 2.0498
a 9303 12097 9.1913
a 9304 7267 0.7769
a 9304 9301 1.9728
a 9304 9305 7.2274
a 9305 9302 67.9929
a 9305 12244 1.6301
a 9305 9304 7.2274
a 9306 9309 2.155
a 9306 9307 4.2062
a 9306 12244 8.7214
a 9307 9309 4.266
a 9307 9308 0.9763
a 9307 9306 84.2961
a 9308 13125 1.0994
a 9308 9307 0.9763
a 9308 9301 1.7597
a 9309 9306 2.155
a 9309 9302 2.1564
a 9309 9307 4.266
a 9310 9301 3.1752
a 9310 9300 1.8648
a 9310 9303 2.0498
a 9311 8406 19.7035
a 9312 9313 91.0213
a 9312 11216 2.0527
a 9312 6727 7.5391
a 9313 6439 3.6994
a 9313 9312 3.7411
a 9313 6727 2.97
a 9313 11782 5.7226
a 9314 8489 18.5485
a 9315 9339 6.0797
a 9316 6754 6.539
a 9317 10071 4.2696
a 9317 9318 4.5302
a 9317 3041 12.1831
a 9318 2485 11.9434
a 9318 9317 4.5302
a 9318 9319 5.2236
a 9319 2827 11.1622
a 9319 157 12.114
a 9319 9318 14.1764
a 9320 6938 2.0606
a 9320 11837 4.284
a 9320 12797 7.5946
a 9321 6623 0.3658
a 9321 9152 4.2854
a 9321 12698 8.8034
a 9322 6874 5.9177
a 9322 6875 62.3162
a 9322 6873 2.3076
a 9323 6564 76.6983
a 9323 6628 15.264
a 9323 6637 1.8677
a 9323 6443 2.4163
a 9324 4161 0.504
a 9324 4162 3.0499
a 9325 9132 6.1697
a 9326 13297 0.7819
a 9326 6864 15.4937
a 9326 4459 5.1019
a 9327 10807 2.2918
a 9327 6865 2.9268
a 9328 10937 8.3506
a 9328 9176 4.7167
a 9328 9177 4.1105
a 9329 4697 1.4918
a 9330 10612 1.8137
a 9330 10614 2.5841
a 9330 10613 22.9299
a 9331 6779 6.7745
a 9331 6781 7.5499
a 9332 9896 4.6195
a 9332 5308 1.1938
a 9332 5327 8.1907
a 9333 6883 1.4357
a 9333 9942 1.1974
a 9333 4538 3.7109
a 9334 9335 2.2536
a 9334 11852 4.7117
a 9334 11744 8.3304
a 9335 9334 24.8914
a 9335 9336 3.9514
a 9335 11743 3.5842
a 9336 9335 3.9514
a 9336 10208 2.1672
a 9336 11852 2.5128
a 9337 8265 3.3761
a 9337 10208 1.5538
a 9337 13595 44.1315
a 9338 7848 4.3236
a 9338 13072 1.9634
a 9339 6711 4.1227
a 9339 9315 6.0797
a 9339 6760 7.0495
a 9340 8393 2.8174
a 9340 6742 12.667
a 9340 6758 13.8211
a 9341 11720 6.6168
a 9342 12351 0.6754
a 9342 12179 9.0612
a 9342 4234 5.202
a 9343 205 10.5538
a 9344 6710 7.5283
a 9345 3873 1.0433
a 9346 9347 4.0903
a 9346 30 7.7148
a 9346 70 10.9188
a 9347 9346 4.0903
a 9347 9347 6.3526
a 9348 753 1.2794
a 9348 6985 29.4955
a 9349 6881 1.2427
a 9349 13090 2.669
a 9350 4410 0.3132
a 9351 6890 1.0447
a 9351 169 35.8373
a 9352 1824 2.9534
a 9353 1474 5.8954
a 9353 9354 13.626
a 9353 1383 18.4466
a 9353 1466 14.0011
a 9354 1119 5.5678
a 9354 9353 13.626
a 9354 1462 14.2186
a 9354 1475 5.0846
a 9355 1636 15.2798
a 9355 1462 8.7422
a 9355 10004 8.3686
a 9355 1476 11.2248
a 9356 8154 1.543
a 9356 7345 3.1709
a 9357 7357 4.8823
a 9357 9356 0.9259
a 9358 4818 37.6639
a 9358 11103 34.5193
a 9358 784 2.7943
a 9359 9360 36.258
a 9359 2167 1.9188
a 9359 1545 4.2941
a 9360 2163 214.8232
a 9360 9359 1.4717
a 9360 2168 11.8217
a 9361 6472 19.0793
a 9362 7968 5.0429
a 9362 4836 29.8361
a 9362 11197 5.035
a 9362 12609 173.4286
a 9363 6468 4.3214
a 9363 8902 10.3306
a 9363 11922 5.5966
a 9364 8426 3.1687
a 9364 9179 3.3005
a 9364 9178 7.5744
a 9365 9179 3.8398
a 9365 12692 5.094
a 9365 9178 6.6708
a 9366 4264 31.1374
a 9367 6967 5.6117
a 9368 468 14.7571
a 9369 4362 17.5428
a 9370 4403 15.8702
a 9370 13313 4.0817
a 9370 4553 6.2251
a 9370 9445 5.1847
a 9371 228 376.1564
a 9371 226 2.9225
a 9371 7285 2.0995
a 9372 9373 1.4458
a 9372 7754 2.1096
a 9373 1226 4.0046
a 9374 3295 2.7994
a 9375 3253 5.9458
a 9375 3253 3.8362
a 9375 9376 2.2478
a 9376 9375 2.2478
a 9377 7722 0.6797
a 9377 479 12.3134
a 9378 6944 12.1644
a 9379 4202 42.5125
a 9379 4226 41.7194
a 9379 4203 2.4127
a 9380 4229 6.9674
a 9380 4215 2.1751
a 9380 7903 78.6498
a 9381 4225 2.3515
a 9381 7903 3.2818
a 9381 13117 11.3501
a 9382 3735 5.7622
a 9382 399 10.9973
a 9382 10383 10.715
a 9383 2754 4.4201
a 9384 3768 9.5573
a 9385 4037 7.8761
a 9386 12321 3.0161
a 9386 8409 15.7918
a 9387 9834 5.742
a 9387 9389 479.6452
a 9387 4353 5.1401
a 9388 4530 6.3194
a 9388 9834 21.8081
a 9388 11441 3.9125
a 9388 9390 7.0754
a 9389 9390 7.7256
a 9389 4444 9.1498
a 9389 9387 16.177
a 9390 4530 117.3741
a 9390 9389 7.7256
a 9390 12423 7.3138
a 9390 9388 7.0754
a 9391 7575 0.409
a 9391 260 73.1616
a 9391 7574 21.6151
a 9392 3096 0.5652
a 9392 12878 22.9189
a 9393 4518 6.6902
a 9393 9394 5.1235
a 9393 8152 12.047
a 9394 4441 33.3879
a 9394 4420 21.9722
a 9394 9393 5.1235
a 9394 8129 6.5066
a 9395 11435 23.3957
a 9396 7971 4.0579
a 9396 9835 5.2516
a 9396 9397 2.6748
a 9397 4346 26.0647
a 9397 9396 2.6748
a 9397 4441 13.2869
a 9398 4353 45.4575
a 9398 4346 58.7101
a 9398 9834 8.6551
a 9399 7794 3.8585
a 9399 9410 2.7785
a 9399 9835 17.2231
a 9400 9841 3.3178
a 9400 9409 5.4634
a 9401 9458 5.099
a 9401 4360 2.9988
a 9401 2375 4.2473
a 9401 4339 11.5546
a 9402 4437 4.477
a 9402 4444 6.6407
a 9402 11076 5.3863
a 9403 9457 0.9245
a 9404 9458 9.7013
a 9404 9458 18.859
a 9404 4440 8.8682
a 9405 2371 25.5038
a 9405 9456 4.1861
a 9405 12423 4.3474
a 9406 2381 13.5835
a 9406 4454 4.7844
a 9406 6927 14.886
a 9407 6926 4.351
a 9407 6910 5.724
a 9407 2372 5.5584
a 9407 6905 21.6778
a 9408 11285 2.5265
a 9408 13137 0.4493
a 9408 13138 3.8657
a 9409 4346 21.9694
a 9409 7793 23.4979
a 9409 9410 44.3052
a 9409 9400 5.4634
a 9410 9399 2.7785
a 9410 8111 9.2651
a 9410 9409 10.2686
a 9411 4595 3.5921
a 9411 4647 187.9314
a 9411 4710 17.3376
a 9412 13011 25.3692
a 9413 9961 1.0498
a 9413 8227 2.6042
a 9414 435 43.7259
a 9414 9961 168.9544
a 9414 426 5.0746
a 9415 9416 2.7346
a 9415 9417 4.6807
a 9415 7756 3.888
a 9416 9415 2.7346
a 9417 8837 0.6415
a 9417 9415 4.6807
a 9417 10049 6.7817
a 9418 9418 18.7963
a 9418 9418 18.7963
a 9418 8181 8.4211
a 9419 15 20.3299
a 9419 1083 102.4142
a 9419 1082 4.0817
a 9420 7981 6.5016
a 9421 10501 66.3129
a 9422 9423 4.6764
a 9422 6604 17.8337
a 9423 7965 2.8188
a 9423 11612 2.8411
a 9423 9425 3.3163
a 9424 9425 20.2126
a 9425 9423 15.816
a 9425 9426 11.6393
a 9425 9424 1.9346
a 9426 6648 4.217
a 9426 7965 122.9481
a 9426 9425 3.1356
a 9427 11930 1.5984
a 9427 6438 3.06
a 9427 6730 10.0109
a 9428 4437 158.8503
a 9429 2562 4.0075
a 9429 706 8.6386
a 9430 7931 6.7313
a 9430 11077 75.6429
a 9430 8797 34.5024
a 9431 10124 3.1802
a 9432 10017 0.7186
a 9432 9878 2.8476
a 9433 9434 0.8791
a 9433 6956 1.098
a 9434 2573 21.4934
a 9435 8097 1.1232
a 9436 13016 21.0773
a 9437 6024 1.4162
a 9438 6026 1.9189
a 9439 8340 0.5659
a 9439 7220 20.742
a 9440 2447 5.6059
a 9440 7279 3.7548
a 9440 2448 8.5817
a 9441 2078 1.2679
a 9442 11123 3.4495
a 9442 9672 1.4609
a 9443 140 3.137
a 9443 13092 4.5648
a 9444 4395 2.2889
a 9445 4362 2.2738
a 9445 9370 5.1847
a 9445 9446 23.6877
a 9446 4472 8.3123
a 9446 4421 261.062
a 9447 1869 3.515
a 9448 484 0.4752
a 9448 7524 6.1495
a 9449 11030 9.6106
a 9450 11029 9.3794
a 9450 13088 10.1117
a 9451 10269 2.3911
a 9451 10268 1.813
a 9452 9453 8.4796
a 9452 268 36.2824
a 9453 4598 19.0953
a 9454 12512 0.4262
a 9454 95 4.4626
a 9454 12569 56.4633
a 9455 2283 14.8766
a 9455 10920 16.6234
a 9456 4440 2.6856
a 9456 9405 4.1861
a 9456 9457 2.6798
a 9457 9403 0.9245
a 9457 9456 7.0357
a 9457 12665 18.8352
a 9457 12423 7.9654
a 9458 9401 5.099
a 9458 9404 32.8439
a 9458 9404 1033.5012
a 9458 4456 4.6354
a 9459 7110 40.595
a 9460 10546 5.6362
a 9460 6615 2.2817
a 9460 6463 3.6662
a 9461 5559 1.4803
a 9461 5596 12.373
a 9461 9462 69.6411
a 9462 9461 6.876
a 9463 10841 0.3737
a 9463 10845 2.3854
a 9463 5878 21.0657
a 9464 7180 9.7841
a 9465 103 8.761
a 9465 12813 10.5437
a 9465 114 15.1488
a 9466 7327 6.48
a 9466 3203 9.108
a 9466 3202 11.1276
a 9467 11672 1.0714
a 9467 7875 5.4857
a 9468 3563 0.7157
a 9469 7827 9.0072
a 9470 8105 3.4193
a 9470 9636 4.5914
a 9470 9635 9.2513
a 9471 7844 1.1628
a 9472 10927 20.3839
a 9472 12650 8.4017
a 9473 3620 14.8838
a 9473 142 6.0602
a 9473 3769 5.5987
a 9474 9942 118.09
a 9474 12661 1.2521
a 9474 4412 2.3616
a 9475 4434 1.0022
a 9476 7648 4.4417
a 9476 7648 19.0188
a 9476 8050 12.217
a 9477 166 2.8735
a 9477 7830 20.2046
a 9478 5616 7.3109
a 9478 5731 3.6958
a 9478 5635 12.1658
a 9479 545 0.5306
a 9479 544 4.1494
a 9479 7254 6.9055
a 9480 2531 1.2276
a 9480 465 37.466
a 9481 2741 4.2811
a 9481 3809 3.9701
a 9481 2739 10.9584
a 9481 2740 13.536
a 9482 12267 17.563
a 9482 11282 5.1358
a 9483 5387 11.1847
a 9483 1660 2.5546
a 9483 5386 87.9316
a 9484 2941 14.6146
a 9484 2868 14.4497
a 9484 9485 3.6943
a 9485 9484 3.6943
a 9485 2494 21.1457
a 9486 9487 114.4106
a 9487 7242 6.9826
a 9487 7240 3.3091
a 9487 1228 4.4395
a 9487 9486 3.2645
a 9488 1229 3.3415
a 9489 1278 10.2282
a 9489 531 5.7564
a 9489 530 13.549
a 9490 7551 4.4215
a 9491 9607 11.0477
a 9491 183 218.7042
a 9491 7396 8.8164
a 9492 13279 0.7078
a 9493 3636 1.5113
a 9493 9494 8.4434
a 9493 4024 6.0646
a 9494 9493 8.4434
a 9495 10309 8.0114
a 9496 10309 7.3908
a 9497 238 11.6892
a 9497 10109 8.9598
a 9498 11985 4.3661
a 9498 3180 8.8812
a 9498 9499 170.2634
a 9499 9498 8.743
a 9499 6924 6.8436
a 9500 8914 8.6414
a 9500 6920 14.4691
a 9501 2231 2.6935
a 9501 2229 12.6706
a 9501 2228 2.7209
a 9502 2222 4.757
a 9503 2228 3.4128
a 9503 2226 10.0382
a 9503 2226 10.1455
a 9504 53 24.354
a 9504 10934 1.2766
a 9505 6947 21.1909
a 9505 9515 38.2718
a 9505 9514 69.1614
a 9506 9512 5.0522
a 9506 9520 36.4059
a 9506 9509 3.6785
a 9507 9510 3.757
a 9507 10487 47.2925
a 9507 9512 5.6549
a 9508 9510 0.949
a 9508 9519 4.9644
a 9508 10505 50.1396
a 9509 8941 2.3263
a 9509 9511 5.0378
a 9509 9506 3.6785
a 9510 9511 5.7528
a 9510 9508 14.8437
a 9510 9507 34.1791
a 9511 9510 5.7528
a 9511 9509 5.0378
a 9511 9512 3.7433
a 9512 9511 3.7433
a 9512 9506 12.7364
a 9512 9507 23.774
a 9513 9517 6.9307
a 9513 9514 5.1746
a 9513 6948 32.2784
a 9513 8939 4.4323
a 9514 8941 2.6071
a 9514 9505 411.9534
a 9514 9513 5.1746
a 9514 9516 3.3998
a 9515 9505 4.7974
a 9515 9519 9.1224
a 9515 9516 8.3678
a 9516 9515 8.3678
a 9516 9514 38.9473
a 9516 9519 6.5196
a 9517 9513 6.9307
a 9518 4494 2.219
a 9519 12582 2.0506
a 9519 9508 4.9644
a 9519 9515 9.1224
a 9519 9516 6.5196
a 9520 9506 7.6241
a 9520 13252 0.6494
a 9520 9521 5.6642
a 9521 9520 5.6642
a 9521 4449 12.3106
a 9521 6948 13.6145
a 9522 7995 58.8047
a 9522 11529 3.2407
a 9522 9523 3.6806
a 9523 11524 1.7395
a 9523 7996 1.8907
a 9523 9524 91.4765
a 9523 9522 3.6806
a 9524 9525 1.2636
a 9524 9523 3.3998
a 9524 11524 87.0747
a 9525 9524 1.2636
a 9526 7996 48.5146
a 9526 12545 2.7346
a 9526 7979 8.4694
a 9527 4915 1.8792
a 9528 9529 130.3582
a 9528 4638 111.0827
a 9528 4662 9.8618
a 9528 4667 4.0313
a 9529 4711 3.0031
a 9529 4648 347.7106
a 9529 4586 3.5402
a 9529 9528 69.0438
a 9530 4721 2.9664
a 9530 4735 4.6094
a 9530 4769 49.9468
a 9530 4731 15.552
a 9531 7971 1.8814
a 9532 9533 5.2178
a 9532 7795 4.5835
a 9532 8128 7.6889
a 9533 7971 1.7719
a 9533 9835 3.8743
a 9533 9532 5.2178
a 9533 7973 4.397
a 9534 7784 2.0426
a 9534 7793 3.3977
a 9534 8113 8.2541
a 9535 7782 1.4846
a 9535 7780 8.0618
a 9535 9536 1.7676
a 9536 9537 4.3524
a 9536 9535 1.7676
a 9536 9538 3.5921
a 9537 9536 4.3524
a 9538 9536 3.5921
a 9539 9540 6.66
a 9539 10947 5.5966
a 9539 12313 4.8024
a 9540 9539 6.66
a 9541 7229 2.785
a 9541 7226 2.3011
a 9541 7228 7.2029
a 9542 7229 1.2866
a 9543 13244 0.3578
a 9543 7228 3.2278
a 9543 7229 5.8349
a 9544 6095 11.6777
a 9544 6121 2.309
a 9544 6125 8.8715
a 9545 9551 4.3553
a 9546 10364 0.9043
a 9546 8991 3.3545
a 9546 9556 1.4616
a 9547 9558 42.5774
a 9547 9555 70.0856
a 9547 11292 8.9395
a 9548 9558 1.5149
a 9548 9572 0.9036
a 9548 11292 4.0126
a 9549 10366 1.9325
a 9549 9572 9.7687
a 9549 9559 4.2422
a 9549 9550 6.8789
a 9550 9569 1.0577
a 9550 9549 6.8789
a 9550 9557 3.1118
a 9550 8990 5.1034
a 9551 9566 5.6194
a 9551 9570 3.4373
a 9551 9573 121.1818
a 9551 9545 4.3553
a 9552 9568 1.0937
a 9552 9553 2.3342
a 9552 9570 7.6392
a 9553 9570 3.4783
a 9553 9567 1.5142
a 9553 9552 2.3342
a 9554 9557 49.2687
a 9554 8991 3.559
a 9554 8990 34.4709
a 9555 9556 21.8145
a 9555 9547 1.0714
a 9555 10364 3.2371
a 9556 9555 68.0559
a 9556 9546 1.4616
a 9556 9559 1.5206
a 9556 9557 6.8602
a 9557 9554 16.4543
a 9557 9556 6.8602
a 9557 9550 3.1118
a 9558 9547 0.6041
a 9558 9548 1.5149
a 9558 9559 3.9701
a 9559 9556 1.5206
a 9559 9549 1.6106
a 9559 9558 3.9701
a 9560 10366 50.0032
a 9560 9563 1.4638
a 9560 9561 6.8558
a 9561 10365 1.4018
a 9561 9564 13.8128
a 9561 9560 6.8558
a 9562 9572 35.9997
a 9563 9560 1.4638
a 9563 9566 1.3032
a 9563 9564 6.8638
a 9564 9567 1.3673
a 9564 9561 1.4638
a 9564 9563 6.8638
a 9565 9566 2.9981
a 9566 9563 1.3032
a 9566 9551 1.4544
a 9566 9565 2.9981
a 9566 9567 6.9062
a 9567 9564 1.3673
a 9567 9553 1.5142
a 9567 9566 6.9062
a 9568 9552 9.1521
a 9568 9569 8.7682
a 9568 9571 2.0239
a 9569 10365 0.9389
a 9569 9550 1.0577
a 9569 9568 8.7682
a 9570 9553 30.5861
a 9570 9551 3.4373
a 9570 9552 51.6291
a 9571 9568 2.0239
a 9572 9548 0.9036
a 9572 9549 3.0211
a 9572 9562 4.9298
a 9573 9551 3.0298
a 9574 6201 6.5542
a 9575 10086 75.775
a 9575 11335 3.4884
a 9576 11156 16.1878
a 9577 13587 4.3322
a 9577 10058 4.5814
a 9577 13605 10.183
a 9577 9351 9.9101
a 9578 13246 0.5659
a 9578 3864 9.0986
a 9579 822 1.4702
a 9579 119 11.394
a 9579 117 10.1196
a 9580 9137 12.5395
a 9581 6413 7.1971
a 9582 9439 1.7669
a 9582 13166 1.1268
a 9583 1224 1.6625
a 9584 12380 0.8208
a 9584 8573 1.3738
a 9584 7760 6.3173
a 9585 9590 5.107
a 9585 9589 4.6145
a 9585 11844 3.3948
a 9586 9587 1.8504
a 9587 9588 9.4882
a 9587 9586 1.8504
a 9587 9589 161.5507
a 9588 9587 9.4882
a 9588 9590 11.1115
a 9588 9591 13.2048
a 9589 9585 4.6145
a 9589 9587 3.5914
a 9589 12027 6.3778
a 9590 9585 5.107
a 9590 9591 10.2002
a 9590 9588 141.6215
a 9590 11844 8.563
a 9591 9590 10.2002
a 9591 9588 13.2048
a 9591 9592 1.4047
a 9592 11834 6.9761
a 9592 11590 2.5733
a 9592 9591 1.4047
a 9593 7373 7.4585
a 9593 11834 3.0586
a 9593 11846 30.4193
a 9594 9141 3.0002
a 9595 9141 829.1927
a 9597 2307 99.7816
a 9597 2769 7.9214
a 9597 7048 357.0331
a 9598 2253 27.7546
a 9598 2313 15.3835
a 9598 2769 7.7544
a 9599 4868 1.5696
a 9599 4841 29.7969
a 9599 10501 16.8098
a 9600 129 5.2121
a 9600 12233 19.2665
a 9600 9601 1.903
a 9601 9602 97.7587
a 9601 129 71.1386
a 9601 9600 1.903
a 9602 9601 9.5004
a 9603 467 7.9834
a 9603 122 11.597
a 9603 12232 11.5042
a 9604 9675 9.1094
a 9604 2972 23.6052
a 9605 7696 17.717
a 9605 11297 27.0569
a 9606 222 1239.842
a 9606 42 15.8429
a 9606 11021 1.5833
a 9607 7288 7.7486
a 9608 4106 2.1722
a 9608 9610 0.7092
a 9608 12994 3.6965
a 9609 13211 0.4723
a 9609 12994 1.1362
a 9609 4124 11.2536
a 9610 4101 6.9725
a 9610 4100 27.6117
a 9610 9608 0.7092
a 9611 7054 1.422
a 9611 9611 3.0434
a 9612 3962 6.5959
a 9612 3639 10.265
a 9612 3814 4.2444
a 9613 9614 1.9447
a 9613 4124 6.8782
a 9613 4123 4.5137
a 9614 9613 1.9447
a 9615 9616 1.885
a 9615 4104 7.9589
a 9615 4105 5.6146
a 9616 9615 1.885
a 9617 12995 7.9603
a 9618 12271 1.5221
a 9619 959 39.3927
a 9619 11889 10.1678
a 9619 895 9.8885
a 9619 2072 9.9785
a 9620 9621 4.4482
a 9620 6006 6.0466
a 9620 4257 2.8346
a 9621 9620 4.4482
a 9622 11164 54.085
a 9623 6235 24.1487
a 9623 6238 2.2968
a 9623 6240 5.6002
a 9624 6212 2.3429
a 9625 6218 3.724
a 9626 9628 2.5286
a 9626 9627 6.1308
a 9626 12140 10.9181
a 9627 9626 20.8594
a 9628 9626 2.5286
a 9628 12681 1.7006
a 9628 10488 1.4746
a 9629 12140 11.1992
a 9629 6235 5.9753
a 9629 10483 6.1402
a 9630 6228 2.0153
a 9631 6221 2.8325
a 9631 5158 3.0715
a 9631 12678 4.05
a 9632 5157 3.2443
a 9633 6367 4.5454
a 9634 12573 0.7661
a 9634 6061 1.6337
a 9634 5153 211.7065
a 9635 9470 9.2513
a 9636 9470 4.5914
a 9637 267 40.1663
a 9638 4709 0.9518
a 9638 4622 3.2386
a 9638 9637 9.3406
a 9639 4699 1.0584
a 9639 9638 4.7318
a 9639 4629 7.0668
a 9641 4570 2.2918
a 9642 8734 0.6156
a 9642 12870 1.1758
a 9643 12870 9.3153
a 9644 4039 5.0479
a 9645 9125 7.7767
a 9646 13455 5.0926
a 9646 907 13.369
a 9646 906 7.7594
a 9647 9648 8.7559
a 9647 13455 4.0932
a 9647 13456 14.7366
a 9648 900 8.3513
a 9648 907 16.8538
a 9648 9647 8.7559
a 9649 3364 0.4939
a 9649 3365 3.4704
a 9649 2359 12.7721
a 9650 10330 3.4654
a 9650 10318 3.821
a 9650 2359 6.3994
a 9650 9651 7.5967
a 9651 9650 7.5967
a 9652 879 4.2394
a 9652 878 3.587
a 9653 7435 4.5007
a 9653 7434 8.8704
a 9653 11350 3.6504
a 9654 883 3.4942
a 9654 9652 20.9203
a 9655 6922 0.5062
a 9656 12239 4.9169
a 9657 12767 0.9
a 9657 3946 28.1621
a 9658 873 3.965
a 9658 7022 14.9169
a 9658 876 174.8888
a 9658 2630 10.1275
a 9659 7024 5.2438
a 9659 7036 13.3762
a 9659 7022 7.9186
a 9660 12493 1255.7533
a 9660 9725 3.1608
a 9660 13518 2.1874
a 9661 12405 4.0824
a 9661 2108 6.3454
a 9661 2097 5.1034
a 9662 2631 47.6743
a 9662 2639 8.9474
a 9662 873 8.375
a 9663 2533 3.4142
a 9663 11354 3.6036
a 9664 11980 1.9757
a 9665 8148 1.2463
a 9666 2109 6.8148
a 9666 7027 13.68
a 9666 9667 13.6231
a 9667 12061 0.9274
a 9667 9666 13.6231
a 9668 2085 8.478
a 9668 9072 32.6268
a 9669 3089 2.2666
a 9669 11715 10.9159
a 9669 4059 3.0823
a 9670 12066 72.4616
a 9670 7419 10.1677
a 9671 10945 6.7514
a 9672 9442 1.4609
a 9672 10053 10.9217
a 9673 1863 1.0886
a 9673 862 26.5298
a 9674 10054 16.5405
a 9674 12167 1.0807
a 9675 3058 23.4648
a 9675 13439 13.0378
a 9675 450 8.6566
a 9675 9604 25.6298
a 9676 11311 2.0585
a 9676 9677 3.4531
a 9677 6958 1.2067
a 9678 9853 1.0022
a 9678 3817 2.2471
a 9678 859 11.1722
a 9679 12076 4.1242
a 9679 12603 2.5798
a 9679 8069 14.359
a 9680 2729 2.1787
a 9681 9683 0.8726
a 9681 2720 5.7946
a 9681 4065 8.3851
a 9682 3699 29.8549
a 9683 9681 0.8726
a 9684 13293 2.6014
a 9684 9431 4.8787
a 9685 11192 10.2989
a 9685 13015 6.0286
a 9685 1261 9.5494
a 9686 3110 445.33
a 9686 13074 7.4966
a 9687 11003 5.9875
a 9687 1095 20.0671
a 9688 3019 0.6142
a 9688 2924 4.0435
a 9688 3119 9.2549
a 9689 9692 21.1078
a 9690 9576 77.0645
a 9690 9689 145.7462
a 9690 9691 14.8198
a 9691 9689 1.0519
a 9691 10055 6.7255
a 9692 7739 1.3046
a 9692 10055 3.0744
a 9693 9703 1.8727
a 9693 13406 2.5207
a 9694 6921 124.2691
a 9694 6923 48.0895
a 9695 12532 16.2238
a 9696 12262 3.5374
a 9698 43 78.2105
a 9698 9477 1.3421
a 9699 9700 32.2924
a 9699 11098 5.4266
a 9700 7486 6.4642
a 9701 12415 4.0298
a 9701 7486 2.1542
a 9702 7262 0.9677
a 9702 13436 180.672
a 9703 13436 1.8382
a 9703 12390 20.454
a 9704 8108 21.7804
a 9704 10163 75.954
a 9705 12725 0.8834
a 9705 10133 6.7298
a 9706 47 27.8561
a 9707 6953 15.9768
a 9707 11989 5.9494
a 9708 10125 8.5082
a 9709 10096 1.5696
a 9709 908 12.0204
a 9710 7326 0.6048
a 9710 8150 0.6386
a 9710 9665 2.4494
a 9711 7327 2.0729
a 9711 3554 3.7541
a 9712 9695 12.1585
a 9712 10149 10.4371
a 9713 13008 71.0012
a 9714 9702 1.0087
a 9714 12390 16.6997
a 9715 2750 1.3903
a 9715 12111 16.3642
a 9716 2732 2.857
a 9717 5396 23.1149
a 9718 10140 1.5782
a 9718 3297 5.1919
a 9718 12188 0.4363
a 9719 2734 0.3982
a 9719 400 4.2437
a 9719 3618 12.0298
a 9720 8323 13.6994
a 9721 5921 12.7845
a 9722 4185 1.9951
a 9723 5925 4.4791
a 9723 9724 4.8643
a 9723 5926 3.2069
a 9724 9723 4.8643
a 9725 857 15.1409
a 9725 9660 3.1608
a 9726 2744 13.5864
a 9727 5499 3.1853
a 9727 11315 0.311
a 9727 5457 16.2036
a 9728 5442 3.4704
a 9728 9846 1.2154
a 9728 5463 11.821
a 9728 5657 3.8052
a 9729 955 4.7002
a 9729 9733 6.1841
a 9729 896 12.5014
a 9730 9731 13.6959
a 9731 325 1.9663
a 9731 9732 19.6812
a 9731 9730 3.0737
a 9732 1138 9.8402
a 9732 324 3.7944
a 9732 115 9.2686
a 9733 9729 6.1841
a 9734 11381 1.0649
a 9735 13085 0.4032
a 9735 9031 39.5993
a 9736 9030 129.0592
a 9736 9735 3.0586
a 9737 9740 0.9994
a 9737 11203 11.1571
a 9738 9741 0.6984
a 9739 9742 23.2924
a 9739 9738 0.7898
a 9740 9739 0.7423
a 9741 9860 18.2189
a 9741 9737 0.8093
a 9742 12438 6.6665
a 9742 11204 0.5256
a 9743 8056 4.351
a 9743 1035 8.7098
a 9743 1037 16.0056
a 9744 7694 11.1571
a 9744 1024 102.2026
a 9745 2779 2.8937
a 9745 1857 0.5573
a 9746 7637 14.8846
a 9746 7637 8.1763
a 9746 4765 5.4893
a 9747 4030 613.7918
a 9747 9183 15.1043
a 9747 7094 8.3959
a 9748 6788 1.3421
a 9748 6782 7.9675
a 9748 6816 252.5363
a 9749 8973 7.069
a 9750 9751 2.952
a 9751 6373 0.9655
a 9751 9750 2.952
a 9752 8285 4.552
a 9752 8297 1.2766
a 9752 9753 1.751
a 9753 9754 4.8766
a 9753 9755 57.6969
a 9753 9752 1.751
a 9754 8380 2.0102
a 9754 9753 4.8766
a 9754 8298 11.1168
a 9755 9753 432.7778
a 9756 7819 5.9854
a 9757 8298 183.6396
a 9757 4129 25.3728
a 9757 10933 8.4348
a 9758 7821 1.1254
a 9758 8326 14.6556
a 9758 8298 3.3552
a 9759 12179 0.4637
a 9759 12253 48.7236
a 9759 5813 6.6802
a 9760 5911 3.7786
a 9761 12637 0.7762
a 9761 5893 9.9727
a 9761 11444 2.5812
a 9762 7456 2.6446
a 9763 5945 3.4733
a 9764 5958 0.887
a 9765 5943 5.1161
a 9766 5967 0.9936
a 9767 11431 2.255
a 9767 5889 14.099
a 9767 7171 19.3471
a 9768 4182 0.9086
a 9768 12634 6.7932
a 9768 9769 3.0355
a 9769 9768 3.0355
a 9770 5977 0.9641
a 9771 5917 93.1523
a 9771 5916 5.2517
a 9771 11445 76.4083
a 9772 9777 0.918
a 9773 13119 1.5581
a 9773 9774 7.3066
a 9773 9778 26.2061
a 9774 13119 75.1582
a 9774 7174 1.0008
a 9774 9773 7.3066
a 9775 5918 4.5295
a 9775 8324 4.0277
a 9775 12636 7.0517
a 9776 5872 4.073
a 9777 9772 0.918
a 9777 8328 6.462
a 9777 8328 13.4813
a 9777 9779 16.5787
a 9778 7175 6.385
a 9778 13119 6.1121
a 9778 9773 7.9913
a 9779 8328 1.0174
a 9779 9777 16.5787
a 9779 4195 2.4178
a 9780 13117 0.7243
a 9781 4212 4.0824
a 9782 9783 9.9439
a 9783 7211 0.8143
a 9783 869 16.799
a 9783 9782 9.9439
a 9784 11856 1.7914
a 9785 5419 108.0821
a 9785 5412 71.7455
a 9785 9786 3.0737
a 9786 9785 25.34
a 9786 9790 8.455
a 9786 9791 3.7166
a 9787 6298 1.6315
a 9787 9811 4.2574
a 9787 9788 812.5923
a 9788 9787 27.4989
a 9788 9790 6.6931
a 9788 9791 4.6627
a 9789 9791 8.4593
a 9790 9792 1.5062
a 9790 9786 8.455
a 9790 9788 6.6931
a 9791 9788 4.6627
a 9791 9786 3.7166
a 9791 9789 8.4593
a 9792 9790 1.5062
a 9793 1049 6.6247
a 9793 5241 150.1543
a 9793 3001 2.7828
a 9794 10992 1.6891
a 9794 11254 1.8202
a 9794 12892 2.6359
a 9794 11619 2.4149
a 9794 11618 2.8872
a 9795 12374 1.7158
a 9795 12373 2.065
a 9795 682 8.5104
a 9795 9796 12.7505
a 9796 9868 2.6114
a 9796 9795 12.7505
a 9797 7953 9.1397
a 9797 8568 30.9112
a 9797 7956 2.178
a 9798 634 2.898
a 9798 261 4.2106
a 9798 632 16.6795
a 9799 9879 2.8555
a 9799 7835 2.3854
a 9800 629 4.2998
a 9800 10 479.8051
a 9800 10069 10.1383
a 9801 1048 456.2986
a 9801 5241 12.2098
a 9801 2435 1.8943
a 9802 260 165.1599
a 9802 2435 12.1068
a 9802 11870 9.059
a 9803 596 15.8184
a 9803 1098 7.7616
a 9803 260 2.9362
a 9804 595 8.6666
a 9804 1079 13.0702
a 9804 260 8.2289
a 9805 7577 18.8201
a 9805 12479 8.1922
a 9805 1082 7.087
a 9806 4194 2.1866
a 9807 11975 2.4221
a 9808 7017 7.0481
a 9808 890 10.4198
a 9808 9293 18.9072
a 9809 12029 3.1176
a 9810 6316 1.5854
a 9810 7870 7.6846
a 9810 11479 7.8667
a 9810 12029 5.0098
a 9811 9787 4.2574
a 9811 10354 4.6058
a 9811 12677 11.5582
a 9812 5414 39.0166
a 9813 5419 2.1082
a 9814 11645 0.6307
a 9814 784 3.9787
a 9814 11640 246.4404
a 9815 11645 3.811
a 9816 1667 0.9403
a 9816 4659 5.958
a 9817 1667 5.9818
a 9817 4659 0.9698
a 9818 5649 8.3707
a 9819 9433 12.06
a 9819 9671 9.6682
a 9820 2577 12.0276
a 9821 9822 1.435
a 9822 9823 2.268
a 9822 9821 4.9915
a 9822 10338 1.2787
a 9823 3815 6.6139
a 9823 9822 2.268
a 9823 3925 4.2761
a 9824 1809 12.5381
a 9824 3851 4.3178
a 9824 3940 7.2713
a 9824 3684 3.9866
a 9825 12165 0.6638
a 9825 7947 46.7201
a 9825 7932 15.133
a 9826 8115 1.571
a 9827 7797 12.6192
a 9828 8115 5.3186
a 9828 8129 6.4044
a 9828 8130 8.2627
a 9829 7794 4.8038
a 9829 7795 4.9442
a 9829 7973 9.7056
a 9830 7993 1.0253
a 9830 7777 6.1279
a 9830 9832 5.2186
a 9831 7786 2.3321
a 9831 7783 172.501
a 9831 9832 3.7526
a 9832 7792 5.4331
a 9832 7780 4.05
a 9832 9831 3.7526
a 9832 9830 5.2186
a 9833 4507 1.6013
a 9833 12665 3.6302
a 9833 4353 13.1414
a 9834 4441 7.7688
a 9834 9387 5.742
a 9834 9398 88.8295
a 9834 9388 21.8081
a 9835 9533 3.8743
a 9835 9396 1.7935
a 9835 9399 17.2231
a 9836 9837 3.9679
a 9836 11434 4.5893
a 9836 6799 1.7345
a 9837 6798 4.5346
a 9837 9836 3.9679
a 9837 10701 5.6536
a 9838 9840 4.4662
a 9839 9840 1.7165
a 9840 9841 4.3769
a 9840 9838 4.4662
a 9840 9839 1.7165
a 9841 9840 4.3769
a 9841 9398 690.853
a 9842 7798 2.7691
a 9842 7831 8.0388
a 9842 8264 280.1579
a 9843 7831 4.297
a 9843 8110 38.1325
a 9843 8112 1.9627
a 9844 4466 5.2819
a 9844 4504 5.8219
a 9844 9845 2.3789
a 9845 9844 2.3789
a 9846 9728 38.1053
a 9847 9848 1.4688
a 9848 9847 1.4688
a 9848 5667 3.0132
a 9848 11135 12.6216
a 9849 9851 17.1176
a 9849 9850 5.9839
a 9849 11677 43.9105
a 9850 9849 255.0938
a 9851 9849 1.7777
a 9851 2558 9.9785
a 9851 8117 4.5382
a 9852 13500 2.8382
a 9852 2806 23.8104
a 9853 9678 27.6644
a 9853 7514 18.2362
a 9854 8338 109.6442
a 9855 4083 0.9583
a 9855 8663 739.6079
a 9855 8126 1.3039
a 9856 3629 226.1833
a 9857 760 6.4973
a 9858 782 8.6918
a 9858 7503 16.7162
a 9858 9861 3.3221
a 9859 12440 5.4722
a 9859 780 262.1873
a 9859 11206 6.6456
a 9860 783 17.6839
a 9860 9741 18.2189
a 9860 8507 5.3856
a 9861 9858 3.3221
a 9861 12439 9.0979
a 9861 11205 0.6293
a 9862 10077 3.6094
a 9862 9709 24.719
a 9863 7944 149.1996
a 9863 8753 7.3217
a 9864 7436 10.5329
a 9864 9664 3.451
a 9865 380 40.518
a 9865 7771 3.7051
a 9866 8669 27.8504
a 9866 9867 1.8677
a 9867 9869 7.3372
a 9868 9870 1.0944
a 9869 9796 2.7734
a 9869 9868 1.9483
a 9870 9872 2.862
a 9870 10014 2.417
a 9871 10012 3.1154
a 9871 393 12.672
a 9872 456 4.1119
a 9872 10014 3.2998
a 9873 1535 16.3742
a 9873 3058 8.5925
a 9873 1534 8.4161
a 9873 451 12.6857
a 9873 12425 8.8078
a 9874 675 16.8206
a 9874 674 127.8287
a 9874 676 3.8822
a 9875 9876 12.997
a 9875 8059 1.4285
a 9875 8053 5.171
a 9876 9875 17.51
a 9877 644 92.0832
a 9877 649 10.6675
a 9877 1140 15.3346
a 9878 7577 4.7578
a 9879 9957 4.5338
a 9880 9021 5.1012
a 9881 7659 6.331
a 9881 12535 4.9903
a 9882 10019 0.913
a 9883 12009 2.6028
a 9883 7679 449.6262
a 9884 7676 455.283
a 9885 12198 0.4932
a 9885 3080 8.0654
a 9885 7660 6.0574
a 9886 1031 16.8185
a 9886 1032 12.0845
a 9886 1033 4.4258
a 9887 1083 2.5398
a 9888 9022 2.4804
a 9889 3167 3.8229
a 9890 2949 1.3212
a 9891 1221 1.1578
a 9891 8788 2.7742
a 9891 11438 11.0621
a 9892 12322 3.9067
a 9893 10779 0.9828
a 9893 6849 9.3825
a 9893 6850 3.2962
a 9894 6846 0.7186
a 9894 11839 3.6151
a 9894 6845 5.1084
a 9895 11841 1.404
a 9895 6846 1.8504
a 9895 11840 4.3546
a 9896 5348 5.0825
a 9896 9332 37.1201
a 9896 5331 4.8463
a 9897 10774 4.7959
a 9897 6838 2.7979
a 9898 6830 3.9679
a 9898 7759 4.3279
a 9898 10697 8.4514
a 9899 6844 33.6003
a 9899 6843 25.7829
a 9899 11841 31.326
a 9900 1223 3.4286
a 9900 8401 1.2031
a 9901 8572 1.4702
a 9901 12381 6.5808
a 9902 9251 0.5904
a 9902 6814 2.8649
a 9902 6809 2.0945
a 9903 9250 3.3646
a 9903 11418 6.5588
a 9903 6809 3.641
a 9904 9255 1.1246
a 9904 6812 5.0242
a 9904 9258 1.5293
a 9905 9906 4.7189
a 9906 9905 4.7189
a 9906 10606 2.4638
a 9906 10604 112.6665
a 9906 6767 8.9662
a 9907 7388 81.9957
a 9908 9252 1.345
a 9909 9911 1.2485
a 9910 6805 1.3414
a 9910 6804 1.8266
a 9910 9911 38.5514
a 9911 9909 54.5848
a 9911 9910 3.6144
a 9911 9247 1.769
a 9912 9249 3.8902
a 9913 11447 2.2104
a 9913 11446 4.8341
a 9913 9917 5.418
a 9913 11614 1.71
a 9914 11447 1.2866
a 9914 9921 127.9491
a 9914 9919 7.1734
a 9915 6807 2.209
a 9915 9254 166.9633
a 9915 6814 10.9778
a 9916 9254 0.7294
a 9916 6813 5.1955
a 9916 11702 1.0879
a 9917 9918 2.0016
a 9917 9919 0.9619
a 9917 9913 5.418
a 9918 10699 1.6214
a 9918 9917 8.0546
a 9918 11614 4.7002
a 9919 9917 0.9619
a 9919 10700 2.2558
a 9919 9914 7.1734
a 9920 11703 3.8203
a 9920 6800 3.109
a 9920 10700 2.34
a 9921 6796 3.0146
a 9921 11446 1.2578
a 9921 9914 2.4365
a 9922 9924 2.1125
a 9923 12793 0.949
a 9923 12790 1.9512
a 9923 9268 6.2244
a 9924 9922 2.1125
a 9924 8386 1.9721
a 9924 8388 37.5683
a 9925 8443 1.0858
a 9925 8439 3.5078
a 9925 6801 9.9626
a 9926 11597 1.6834
a 9926 11606 3.0233
a 9926 11131 1.746
a 9927 11597 5.6491
a 9928 1560 0.4363
a 9928 3133 12.2779
a 9928 1559 3.3581
a 9929 9068 1.7906
a 9929 65 4.6722
a 9930 6917 0.7178
a 9930 10940 2.1967
a 9931 6952 2.0203
a 9931 12460 2.5798
a 9932 4289 1.7186
a 9934 12961 0.7214
a 9935 3442 0.6869
a 9935 8595 16.1892
a 9936 13281 46.9693
a 9936 4149 1.4933
a 9936 4427 1.8166
a 9936 13295 12.8822
a 9937 3446 6.0646
a 9938 4509 4.0918
a 9938 3446 22.3776
a 9938 4409 6.8069
a 9939 7395 3.8527
a 9940 1874 62.5793
a 9941 4531 1.0548
a 9942 9474 3.7757
a 9942 4990 115.2247
a 9942 9333 1.1974
a 9943 4446 3.0226
a 9944 6994 4.4748
a 9944 2355 24.0163
a 9944 4295 4.6476
a 9945 627 10.9138
a 9945 8925 3.1622
a 9945 8926 4.6771
a 9946 1438 2.484
a 9946 3177 17.3736
a 9946 1208 17.9215
a 9947 9031 0.5342
a 9947 1142 8.0359
a 9948 50 0.7193
a 9948 672 6.5801
a 9948 665 32.6667
a 9949 50 5.4324
a 9949 662 0.5263
a 9950 12446 0.7092
a 9950 12933 19.8727
a 9951 2984 0.6523
a 9951 13376 40.2487
a 9952 11001 3.5078
a 9953 9200 16.9808
a 9953 904 14.9256
a 9953 903 11.4386
a 9954 11121 3.3702
a 9954 11118 2.101
a 9954 11117 2.0333
a 9955 1023 2.4595
a 9956 11868 0.5177
a 9956 11867 7.5442
a 9957 1023 0.7085
a 9957 9956 4.009
a 9958 518 8.7494
a 9959 355 16.1539
a 9959 113 5.9126
a 9959 346 14.8801
a 9960 172 1.0613
a 9960 435 10.9548
a 9961 9413 1.0498
a 9961 9960 4.873
a 9962 5308 2.3141
a 9962 8445 6.9804
a 9962 5348 6.9725
a 9963 10644 1.471
a 9964 12812 62.6023
a 9965 9966 3.4618
a 9966 9968 1.7172
a 9966 3611 1.5854
a 9966 9965 3.4618
a 9967 3610 2.5898
a 9968 9966 1.7172
a 9969 10610 8.0928
a 9970 9971 2.4703
a 9970 9972 43.652
a 9970 12712 1.0469
a 9971 12714 45.5844
a 9971 9972 1.3694
a 9971 9970 16.8929
a 9972 9971 1.3694
a 9972 9973 1.1246
a 9972 9970 3.5186
a 9973 9972 4.1659
a 9973 9974 2.5745
a 9973 9975 0.4853
a 9974 9977 4.6411
a 9974 9973 0.7553
a 9974 11632 17.7134
a 9975 9973 0.4853
a 9975 12715 233.342
a 9975 9976 1.9627
a 9976 9975 1.9627
a 9977 9974 4.6411
a 9978 3563 30.4198
a 9978 7656 2.7986
a 9978 10824 18.7978
a 9979 12077 2.3227
a 9980 9981 6.3432
a 9981 4853 10.9786
a 9981 4852 20.9951
a 9981 9980 6.3432
a 9982 1580 1.9339
a 9982 1604 18.2693
a 9983 287 3.0262
a 9984 3339 3.4906
a 9985 809 2.8685
a 9986 9987 2.2608
a 9986 9989 18.2954
a 9986 9988 13.721
a 9987 9986 2.2608
a 9988 7352 14.6146
a 9988 13104 5.6729
a 9988 9986 368.7588
a 9989 9986 14.6677
a 9990 8822 14.2128
a 9991 5142 2.0801
a 9992 11807 0.6948
a 9992 4765 31.703
a 9992 4573 4.4539
a 9993 4585 32.9306
a 9994 11600 0.7942
a 9995 2407 7.9301
a 9996 1757 2.8915
a 9997 12240 12.5064
a 9998 12240 0.1368
a 9998 12241 1.0958
a 9998 4676 0.8374
a 9999 4712 212.0922
a 10000 4770 3.469
a 10000 13589 0.3478
a 10000 4611 11.7122
a 10001 8160 6.1769
a 10001 901 1.0634
a 10001 7231 8.3261
a 10002 1641 3.7001
a 10003 10004 3.2105
a 10004 9355 8.3686
a 10004 8419 0.8402
a 10005 853 13.3906
a 10005 8577 8.0482
a 10006 10005 60.7002
a 10006 139 56.0736
a 10007 1144 5.3993
a 10007 10960 6.1265
a 10008 11293 119.6138
a 10008 852 13.1371
a 10009 11252 3.1306
a 10009 8610 15.3497
a 10009 11530 55.4363
a 10010 7824 11.592
a 10011 2252 44.6566
a 10012 9866 0.6689
a 10013 10012 2.2586
a 10013 9871 2.8001
a 10014 10013 0.4889
a 10015 9956 0.5422
a 10015 9955 1.5934
a 10016 10017 63.2983
a 10016 7837 3.2278
a 10017 7835 0.6343
a 10017 7837 2.0146
a 10018 10023 0.3391
a 10019 7344 6.0934
a 10019 11141 2.1564
a 10020 10027 2.8339
a 10020 10025 2.0369
a 10021 10020 1.3104
a 10022 3040 5.4317
a 10022 11083 6.2065
a 10023 11140 1.3702
a 10023 12535 2.3976
a 10024 10026 4.1998
a 10024 10018 2.0758
a 10025 10024 28.7683
a 10026 11139 2.6712
a 10026 7660 11.1838
a 10027 12451 3.5266
a 10028 2572 6.9624
a 10028 2571 4.4878
a 10028 13112 13.8629
a 10029 9693 11.1636
a 10030 8966 33.3518
a 10030 10029 10.0901
a 10031 3829 7.5996
a 10031 8843 34.4105
a 10031 4070 9.6358
a 10032 8029 2.3299
a 10033 2212 2.3252
a 10034 2206 0.6595
a 10034 2210 5.1062
a 10034 3287 31.4942
a 10035 3792 9.9576
a 10036 4030 9.6293
a 10037 3854 63.1636
a 10038 3854 1.7921
a 10039 10040 27.1394
a 10040 3999 3.983
a 10040 10039 6.3814
a 10040 2790 7.1885
a 10041 10086 0.959
a 10041 12422 2.9585
a 10042 4835 4.4662
a 10043 3841 0.3319
a 10043 3710 3.4387
a 10043 3940 121.7203
a 10044 2595 0.2981
a 10044 2199 2.1046
a 10044 3678 3.6972
a 10045 10047 1.049
a 10045 10046 0.5702
a 10046 9697 1.224
a 10048 10046 5.0076
a 10049 9417 6.7817
a 10050 6908 19.865
a 10051 7236 6.0278
a 10051 6906 0.8762
a 10051 6908 3.8938
a 10052 11161 55.774
a 10053 9674 2.1434
a 10053 10054 2.466
a 10054 13572 53.2922
a 10055 13428 4.1242
a 10056 6347 5.0861
a 10056 12836 1.5055
a 10056 6346 4.392
a 10056 6278 7.8638
a 10057 5840 50.8739
a 10058 119 7.5578
a 10058 9577 4.5814
a 10058 13139 5.1552
a 10059 4780 2.5452
a 10060 6982 6.1659
a 10061 2858 4.225
a 10062 9054 3.2602
a 10063 1128 0.3751
a 10063 2935 3.3581
a 10063 2861 1063.4944
a 10064 3107 17.1446
a 10064 1129 9.6739
a 10065 10067 4.3344
a 10065 10064 0.8957
a 10066 10065 5.454
a 10067 3119 1.4976
a 10067 2976 10.6222
a 10067 3019 10.6704
a 10068 2442 58.7654
a 10068 3099 18.4853
a 10068 2892 10.4249
a 10069 45 0.3492
a 10069 9800 10.1383
a 10069 48 8.7358
a 10070 7749 2.7108
a 10070 2767 3.2947
a 10071 3095 6.3562
a 10071 9317 4.2696
a 10071 3153 13.1062
a 10072 12299 11.9239
a 10072 12300 15.323
a 10073 2983 1.535
a 10073 66 6.5081
a 10074 8139 0.7913
a 10075 912 1.8698
a 10075 10076 2.1348
a 10076 913 4.8074
a 10076 912 2.7576
a 10076 10075 2.1348
a 10077 9862 3.6094
a 10077 8165 25.9579
a 10077 915 7.1669
a 10078 10080 4.2163
a 10078 376 4.351
a 10078 365 1028.53
a 10079 378 4.2516
a 10079 368 16.475
a 10079 377 4.41
a 10080 392 41.7323
a 10080 10078 4.2163
a 10080 377 4.3618
a 10081 3199 1.7086
a 10081 3201 0.2592
a 10081 3193 4.2336
a 10082 3773 82.0947
a 10083 12256 1.116
a 10083 9952 7.6068
a 10084 9695 1.9886
a 10084 10149 9.2606
a 10085 10086 15.3425
a 10085 10041 14.7816
a 10086 12421 1.4638
a 10087 6918 22.8139
a 10087 6919 501.6525
a 10088 10087 158.4766
a 10089 10088 4.4575
a 10089 7739 3.3012
a 10090 5845 6.1595
a 10091 3173 18.2088
a 10092 10091 3.6878
a 10092 7740 3.0197
a 10093 2130 2.9412
a 10093 2129 0.7402
a 10093 8318 3.69
a 10094 37 2.4214
a 10095 8778 4.2005
a 10095 2001 6.9372
a 10096 898 6.0581
a 10096 8153 2.9282
a 10097 8150 1.2658
a 10097 462 17.3254
a 10098 27 18.4968
a 10099 28 28.3982
a 10100 10098 16.8899
a 10100 162 2.1154
a 10101 10103 0.468
a 10101 3328 7.4203
a 10101 3326 5.2891
a 10102 8576 32.6902
a 10102 10239 1.1117
a 10103 10101 17.7485
a 10104 3329 46.1635
a 10104 3327 5.8018
a 10105 3370 0.6098
a 10105 10899 2.9182
a 10105 10900 75.0268
a 10106 1819 5.2639
a 10106 2014 11.219
a 10106 2014 18.1692
a 10106 1855 6.4692
a 10107 11047 1.0123
a 10107 7334 24.2359
a 10108 126 7.7054
a 10108 127 12.7958
a 10108 463 94.9142
a 10108 12233 25.2382
a 10109 11973 2.8462
a 10109 9497 2.7634
a 10109 41 2.0383
a 10110 243 1.3313
a 10111 7399 45.0335
a 10111 11281 28.3399
a 10112 11067 1.4011
a 10112 9696 112.35
a 10113 6616 5.6419
a 10113 10115 47.1235
a 10113 6714 4.2811
a 10114 11782 1.6171
a 10114 6687 9.1648
a 10114 10115 5.2783
a 10115 6403 2.9707
a 10115 10113 3.5748
a 10115 10114 5.2783
a 10116 6687 2.1694
a 10116 6522 3.0139
a 10116 6576 5.8493
a 10116 10117 83.3695
a 10117 6647 1.903
a 10117 6727 1.9591
a 10117 10116 5.3568
a 10118 6452 1.1138
a 10119 13539 1.1916
a 10120 3501 2.7756
a 10120 3493 184.7731
a 10120 3509 3.1824
a 10121 3497 9.1066
a 10122 3490 15.5038
a 10123 2799 5.0551
a 10123 44 2.8159
a 10123 8615 8.7048
a 10124 7673 12.0269
a 10124 10125 80.7744
a 10125 10070 3.0622
a 10125 10124 2.6273
a 10126 2330 11.6366
a 10127 2331 8.0302
a 10128 1874 2.6208
a 10128 1867 17.01
a 10128 10129 3.6518
a 10129 7751 0.679
a 10129 10128 3.6518
a 10129 10229 7.979
a 10130 13048 0.8496
a 10130 1241 14.8781
a 10130 10226 7.4614
a 10131 1306 5.3431
a 10131 10132 120.8144
a 10132 1309 4.8967
a 10132 9705 7.2965
a 10133 13049 0.8158
a 10133 10134 6.9422
a 10134 10135 6.7982
a 10134 1252 17.1266
a 10135 13051 0.679
a 10135 10139 3.8772
a 10135 1255 16.1086
a 10136 10228 18.4563
a 10136 1263 12.0298
a 10137 10227 5.0594
a 10137 1259 13.95
a 10138 10137 5.2452
a 10138 13053 0.6466
a 10138 1257 14.85
a 10139 13052 0.6624
a 10139 10138 4.0572
a 10139 1272 15.5045
a 10140 12798 0.2693
a 10140 9718 15.2812
a 10141 10151 4.0291
a 10142 10141 6.223
a 10142 10140 1.2593
a 10143 10156 3.4927
a 10143 8715 4.9435
a 10144 8715 6.7882
a 10144 10145 7.2194
a 10145 7723 9.1951
a 10146 10154 18.9187
a 10147 8756 54.419
a 10147 10141 41.5246
a 10148 3297 5.5296
a 10148 3262 8.0503
a 10148 10247 8.3225
a 10149 12564 8.8474
a 10150 8730 9.8114
a 10150 8730 9.7798
a 10151 10152 1.4782
a 10152 10153 6.3806
a 10152 8821 296.2272
a 10153 10152 145.187
a 10154 403 5.7787
a 10154 10158 11.8879
a 10155 10950 3.3286
a 10155 10154 6.0185
a 10156 10145 70.2521
a 10157 10156 16.4765
a 10158 8796 3.2494
a 10158 12781 1.0123
a 10159 12772 1.1707
a 10159 10160 0.7027
a 10160 12773 0.6343
a 10160 10161 0.841
a 10161 8796 15.48
a 10162 12772 7.1064
a 10162 10247 49.5483
a 10163 10308 11.6964
a 10164 10165 17.1317
a 10165 10163 10.4659
a 10165 8108 9.3096
a 10166 5595 14.1782
a 10166 5617 4.037
a 10166 5726 19.9051
a 10167 5675 6.1313
a 10168 10169 2.0412
a 10169 10168 2.0412
a 10169 5675 9.6288
a 10169 5503 5.1329
a 10170 5685 29.7691
a 10170 5538 0.6077
a 10170 12347 0.8338
a 10171 11359 1.561
a 10171 11359 6.673
a 10171 5682 532.1465
a 10171 10172 5.0904
a 10172 5602 22.2077
a 10172 10173 5.9587
a 10172 10171 5.0904
a 10173 12181 1.9109
a 10173 10174 2.615
a 10173 10172 5.9587
a 10174 5580 10.1045
a 10174 5721 6.6521
a 10174 10173 2.615
a 10175 5746 9.2837
a 10176 5574 6.3806
a 10177 5650 5.7722
a 10179 12401 0.6538
a 10179 3310 1.6301
a 10179 10178 1.0217
a 10180 12993 0.4687
a 10181 5652 9.1504
a 10182 5855 3.281
a 10183 5837 18.1879
a 10184 10185 6.3504
a 10185 4108 0.3766
a 10185 10184 6.3504
a 10185 4109 4.703
a 10186 5853 185.0972
a 10187 5853 3.1702
a 10187 12496 13.1692
a 10188 12646 0.2102
a 10188 5502 3.5114
a 10188 8589 12.294
a 10189 5262 11.0959
a 10190 5440 0.9655
a 10191 5657 3.9557
a 10192 6887 5.3626
a 10193 13312 8.5028
a 10193 12260 1.5458
a 10193 4568 8.7811
a 10194 5442 0.9036
a 10195 7935 110.1905
a 10195 10196 109.896
a 10195 13308 0.6768
a 10196 13309 5.017
a 10196 10195 1.8166
a 10196 12261 1.6488
a 10197 10198 0.8302
a 10198 10197 0.8302
a 10198 7935 2.4235
a 10198 5706 14.3453
a 10199 5547 2.7302
a 10200 5699 55.5468
a 10201 7490 2.808
a 10202 10203 41.4442
a 10203 8868 4.0946
a 10203 10202 35.4467
a 10203 8944 6.5959
a 10203 5706 4.8564
a 10204 7639 16.1381
a 10204 13307 9.6206
a 10204 12226 11.5344
a 10205 9001 0.6739
a 10205 5220 10.8482
a 10205 5219 12.438
a 10206 5218 3.4186
a 10206 5222 23.9847
a 10206 5221 29.6549
a 10207 5211 3.4913
a 10207 5214 13.9565
a 10207 8645 11.7446
a 10208 8266 0.9907
a 10208 10209 3.2825
a 10208 9336 2.1672
a 10208 9337 1.5538
a 10209 11852 1.8454
a 10209 10208 3.2825
a 10209 8265 37.0884
a 10210 10211 91.7038
a 10211 13370 16.6414
a 10211 10210 107.535
a 10212 3245 1.2413
a 10213 10214 1.4177
a 10213 9294 2.1715
a 10213 10215 53.1513
a 10214 9297 6.9274
a 10214 10213 1.4177
a 10214 10215 7.5787
a 10215 10213 6.3922
a 10215 10214 195.4446
a 10215 9296 36.5123
a 10216 12798 8.5673
a 10217 13497 0.4471
a 10217 10218 1.4681
a 10217 13498 2.0225
a 10218 12783 4.8218
a 10218 212 30.7722
a 10218 10217 89.8743
a 10219 10220 0.5998
a 10219 10074 8.509
a 10220 10219 0.5998
a 10220 786 7.807
a 10221 181 0.1872
a 10221 8011 21.5471
a 10221 8020 5.8406
a 10222 4028 4.8607
a 10222 142 15.7306
a 10222 8107 15.0084
a 10223 12393 0.9259
a 10223 7962 333.533
a 10223 12816 30.5798
a 10224 7778 1.1815
a 10224 7779 4.6368
a 10224 12081 10.373
a 10225 13064 0.8842
a 10225 10131 3.8304
a 10225 1305 5.863
a 10226 13070 0.8158
a 10226 10225 6.5966
a 10226 1249 25.7069
a 10227 13055 0.612
a 10227 10136 5.2459
a 10228 13056 20.4634
a 10228 10237 5.2582
a 10228 1269 11.1751
a 10229 1872 7.7753
a 10229 13061 4.6966
a 10229 10129 7.979
a 10230 10231 8.1346
a 10230 11497 1.8367
a 10230 1570 22.2026
a 10231 10232 487.2505
a 10231 10230 8.1346
a 10232 10233 1.6992
a 10232 10231 5.2754
a 10232 9037 11.6071
a 10233 10234 4.2401
a 10233 10232 1.6992
a 10234 10235 8.8301
a 10234 10233 4.2401
a 10235 10238 4.8902
a 10235 10234 8.8301
a 10236 1874 13.3178
a 10236 10238 52.9519
a 10236 11176 0.4838
a 10237 12208 0.5378
a 10237 1331 5.7506
a 10238 10235 4.8902
a 10238 10236 5.0069
a 10239 10102 1.1117
a 10239 7752 2.2666
a 10239 7753 2.3465
a 10240 3327 57.9887
a 10240 10239 38.8085
a 10241 6988 1.7446
a 10241 6987 12.4286
a 10242 8084 16.5751
a 10243 10244 1.8
a 10244 10245 1.6826
a 10244 10242 0.6912
a 10245 10896 2.507
a 10246 10245 0.9288
a 10246 10242 1.8072
a 10247 10143 13.4784
a 10247 10148 8.3225
a 10248 11975 15.7399
a 10249 5383 1.1599
a 10249 10250 3.3106
a 10249 5384 11.965
a 10250 5385 1.7446
a 10250 10249 3.3106
a 10250 5386 11.9542
a 10251 6087 0.9036
a 10252 7188 1.1448
a 10253 7192 1.6812
a 10253 7188 1.4789
a 10253 7191 3.6979
a 10254 7004 68.3129
a 10254 6277 9.3914
a 10254 7006 6.6348
a 10255 10256 3.8182
a 10256 10255 3.8182
a 10256 6350 7.1834
a 10256 6351 10.9937
a 10257 6180 7.8869
a 10257 6189 21.8601
a 10257 6173 38.8855
a 10258 6255 1.8518
a 10259 11053 1.489
a 10259 2495 20.0426
a 10260 4597 9.3097
a 10260 13165 8.2937
a 10260 10350 3.1954
a 10261 10373 1.5473
a 10261 730 1.4832
a 10262 2981 2.1307
a 10262 10261 2.4221
a 10263 2805 0.4853
a 10263 12905 1.003
a 10263 11233 23.2942
a 10264 4621 6.47
a 10264 10263 29.0282
a 10265 4720 0.5213
a 10265 10264 18.8273
a 10266 4650 0.522
a 10266 10351 2.201
a 10266 10265 4.6714
a 10267 4591 0.5645
a 10267 10266 11.7864
a 10268 10260 4.6814
a 10269 10270 1.1448
a 10269 10271 1.4227
a 10269 10268 2.1168
a 10270 268 1.4206
a 10270 8708 20.4358
a 10271 10269 1.4227
a 10271 4594 11.4581
a 10271 12354 8.1058
a 10272 4682 43.1211
a 10272 12250 5.6203
a 10273 11977 0.725
a 10273 13396 8.6285
a 10274 2981 3.2566
a 10275 4575 1.0195
a 10276 9992 16.5744
a 10276 96 532.1039
a 10277 4765 0.8194
a 10277 11807 31.7074
a 10278 4306 0.7942
a 10278 10277 5.0501
a 10279 4676 0.7675
a 10279 12504 737.1534
a 10280 7065 0.6257
a 10280 10279 11.0506
a 10281 4307 0.5897
a 10281 10280 29.209
a 10282 4316 0.6379
a 10282 13356 23.0357
a 10282 4315 11.309
a 10283 5660 1.6661
a 10283 5678 8.3059
a 10283 5678 12.6101
a 10284 1135 9.7459
a 10284 1122 14.019
a 10284 11185 27.7181
a 10284 12246 4.9493
a 10285 13183 4.711
a 10285 7827 3.9334
a 10285 8559 8.033
a 10286 2670 1.116
a 10287 2650 8.2555
a 10288 12323 4.5043
a 10288 2715 115.921
a 10289 12323 1.1354
a 10289 2717 6.1913
a 10289 2683 14.4742
a 10290 2795 1.9253
a 10291 3348 4.2559
a 10291 3340 2.7619
a 10291 3335 0.8237
a 10292 940 0.9864
a 10292 946 206.082
a 10292 2068 13.2826
a 10293 10294 4.3855
a 10293 903 8.5802
a 10293 902 19.7532
a 10294 10293 4.3855
a 10294 9200 25.542
a 10294 908 21.1255
a 10295 2143 0.3946
a 10295 3833 20.6292
a 10295 2126 8.3362
a 10296 3837 0.5306
a 10296 3984 8.9057
a 10296 3732 6.9538
a 10297 10298 8.6325
a 10297 1865 15.1488
a 10297 1569 36.6329
a 10298 10297 5.4959
a 10298 1866 5.1545
a 10298 9940 9.6912
a 10299 12327 2.1773
a 10299 10304 35.221
a 10300 11008 23.8219
a 10301 10300 2072.8538
a 10301 10300 33.9545
a 10302 11043 3.5064
a 10303 9412 100.795
a 10303 11154 11.5718
a 10304 10303 891.9964
a 10305 7527 0.6602
a 10305 2443 8.3959
a 10306 10307 0.4853
a 10306 12833 0.5386
a 10307 13076 0.6574
a 10307 12285 303.3498
a 10308 8994 41.3856
a 10308 13112 45.7553
a 10309 10310 3.6691
a 10309 9496 7.3908
a 10309 9495 8.0114
a 10310 10309 3.6691
a 10310 12084 6.6607
a 10310 3794 10.4362
a 10311 4015 7.7623
a 10312 12988 7.9763
a 10312 10313 0.6833
a 10312 11917 8.4456
a 10313 10312 0.6833
a 10313 10970 79.2547
a 10314 10315 0.6494
a 10314 8729 6.7982
a 10315 10314 7.9367
a 10315 10316 0.7632
a 10317 12037 1.71
a 10317 7638 11.2126
a 10317 11792 10.4134
a 10318 9650 3.821
a 10318 3356 200.6712
a 10318 13590 6.6823
a 10319 3364 0.8489
a 10319 3363 7.8739
a 10319 10320 12.9362
a 10320 13590 0.5695
a 10320 2359 2.7144
a 10320 10319 12.9362
a 10321 3399 1.8958
a 10321 3403 1.9584
a 10321 10322 7.1842
a 10322 10323 1.939
a 10322 10324 1.9274
a 10322 10321 30.5891
a 10323 3401 145.8135
a 10323 3399 7.1446
a 10323 10322 1.939
a 10324 3403 7.2194
a 10324 3402 4.5266
a 10324 10322 1.9274
a 10325 2320 9.5472
a 10326 2321 160.62
a 10327 3365 8.2037
a 10328 3356 57.9848
a 10328 3354 49.6151
a 10328 11383 2.6402
a 10329 11153 3.2198
a 10329 7655 37.5912
a 10329 3355 11.5474
a 10330 10331 3.2393
a 10330 9650 3.4654
a 10330 2358 5.899
a 10331 10330 3.2393
a 10331 10332 5.5627
a 10331 3357 3.4618
a 10332 3358 23.127
a 10332 10331 5.5627
a 10332 2358 3.1622
a 10333 5299 2.9498
a 10333 3366 0.9972
a 10333 12383 0.3355
a 10334 5299 0.3175
a 10334 5300 2.9844
a 10334 3358 12.5021
a 10335 10336 1.6949
a 10335 11114 1.1822
a 10335 11115 1.9678
a 10336 10335 1.6949
a 10336 10337 3.3084
a 10336 11116 685.426
a 10337 10336 3.3084
a 10338 9822 1.2787
a 10339 10340 3.8909
a 10340 3638 13.266
a 10340 11857 12.69
a 10340 10339 3.8909
a 10341 8485 3.5057
a 10341 10342 7.6292
a 10341 7377 5.9393
a 10342 7382 4.0414
a 10342 10341 2.2608
a 10342 8464 4.5461
a 10343 5140 4.9752
a 10344 8229 2.2853
a 10344 10344 45.1723
a 10344 10344 6.3504
a 10345 11945 7.0286
a 10345 8248 1.2017
a 10345 10346 1.2794
a 10346 10345 1.2794
a 10346 8248 21.2594
a 10346 11944 11.16
a 10347 10348 1.381
a 10347 10348 2.4343
a 10347 8251 3.0456
a 10348 10347 1.381
a 10348 10347 2.4343
a 10348 8232 17.0035
a 10349 12872 2.5918
a 10350 10260 3.1954
a 10351 10266 23.428
a 10352 4728 0.6581
a 10353 2870 1.0901
a 10354 9811 4.6058
a 10355 6281 2.4494
a 10356 6277 5.9868
a 10357 11554 8.8322
a 10358 5415 1.3896
a 10359 6304 79.6731
a 10359 6305 12.6317
a 10359 10360 6.5383
a 10360 10359 6.5383
a 10361 5591 18.3434
a 10361 6249 3.2033
a 10361 12269 4.1378
a 10362 11138 57.2975
a 10362 8333 2.2997
a 10362 5585 11.1305
a 10363 11292 0.7488
a 10364 9546 0.9043
a 10364 9555 3.2371
a 10364 8991 23.1411
a 10365 9569 0.9389
a 10365 9561 6.1384
a 10365 10366 298.9344
a 10366 9549 6.4283
a 10366 9560 1.4465
a 10366 10365 292.6379
a 10367 6176 2.358
a 10368 6196 1.9901
a 10369 1664 5.292
a 10369 11323 101.279
a 10370 12180 8.617
a 10370 13149 4.4698
a 10370 5430 2.8692
a 10371 5704 6.3043
a 10372 5424 2.2234
a 10372 5427 13.0133
a 10373 9852 18.6365
a 10374 11053 1.247
a 10374 10274 2.1694
a 10375 10376 6.8033
a 10376 5507 3.8815
a 10376 13149 6.3569
a 10376 10375 6.8033
a 10377 12266 4.0601
a 10377 408 338.785
a 10377 5428 28.0159
a 10378 4242 0.9691
a 10379 3923 5.1408
a 10380 3919 2.0426
a 10381 10382 3.2602
a 10382 10381 3.2602
a 10382 3905 3.4992
a 10382 4042 5.1826
a 10383 9382 10.715
a 10384 11659 1.656
a 10384 10392 6.4969
a 10384 10385 23.0615
a 10385 10384 6.889
a 10386 11572 0.8309
a 10387 11633 4.0507
a 10387 10388 3.4668
a 10387 10390 3.6122
a 10388 10387 3.4668
a 10389 10390 1.0411
a 10390 10389 1.0411
a 10390 6002 3.1946
a 10390 10387 3.6122
a 10391 7360 2.255
a 10392 10384 8.3699
a 10392 11628 7.1028
a 10392 7361 5.3554
a 10393 10394 5.6664
a 10394 10393 5.6664
a 10394 10395 61.3179
a 10394 3631 2.4538
a 10395 10394 5.3446
a 10396 3805 6.6924
a 10396 3887 24.1283
a 10396 11947 4.7002
a 10397 7559 2.4739
a 10397 3930 0.5501
a 10398 5813 1.489
a 10399 10400 4.9644
a 10400 7904 0.7243
a 10400 6339 6.6103
a 10400 10399 4.9644
a 10401 6339 2.3004
a 10401 10402 7.2684
a 10401 10403 2.7036
a 10402 10401 7.2684
a 10403 10404 380.9418
a 10403 10401 2.7036
a 10403 7897 6.1056
a 10404 10403 8.7156
a 10405 10407 5.3057
a 10406 10407 4.9198
a 10406 6358 2.3479
a 10406 6355 29.7821
a 10407 10406 171.8359
a 10407 6358 942.0166
a 10407 10405 5.3057
a 10408 10410 2.0362
a 10408 12864 2.8318
a 10408 11892 2.3148
a 10409 11892 8.8841
a 10409 7127 2.2241
a 10409 10410 3.2486
a 10410 7126 7.1345
a 10410 10408 2.0362
a 10410 10409 3.2486
a 10411 5599 1.1614
a 10411 13272 0.5105
a 10412 10413 2.6971
a 10412 5467 18.481
a 10412 5822 4.3265
a 10413 10412 2.6971
a 10414 5537 2.5351
a 10414 5474 8.2274
a 10414 10415 3.6094
a 10415 10414 3.6094
a 10416 13351 0.3298
a 10416 5488 7.5334
a 10416 5599 9.3521
a 10417 12646 6.0732
a 10418 5818 10.3471
a 10419 10420 11.7453
a 10420 10419 3.3746
a 10420 10421 0.6113
a 10420 10422 1.4422
a 10421 10420 0.6113
a 10422 5825 1.2377
a 10422 10420 1.4422
a 10422 10423 10.0649
a 10423 10422 10.0649
a 10424 10427 8.5097
a 10425 10426 211.335
a 10426 5467 41.5894
a 10426 10425 5.6894
a 10426 5826 115.567
a 10427 7437 6.6017
a 10427 12313 1.6553
a 10427 10424 8.5097
a 10428 10429 2.754
a 10429 9126 4.6138
a 10429 10428 11.7123
a 10429 5830 5.67
a 10430 5565 5.5634
a 10431 10432 0.9324
a 10432 10431 0.9324
a 10432 11856 22.0903
a 10432 10433 2.713
a 10433 10434 4.9493
a 10433 10432 2.713
a 10433 11547 7.6061
a 10434 10433 17.4197
a 10435 10436 9.1009
a 10436 10435 3.0024
a 10436 10437 3.0773
a 10436 10438 1.6711
a 10437 10436 3.0773
a 10437 4236 6.8947
a 10437 7640 4.7938
a 10438 10436 1.6711
a 10439 5798 2.6885
a 10440 6334 10.6452
a 10441 13111 0.9209
a 10441 7110 5.8615
a 10442 8668 15.1361
a 10442 10444 7.1676
a 10443 10445 0.8186
a 10443 5885 52.3107
a 10444 10443 0.7985
a 10444 11348 0.6365
a 10444 10445 0.7654
a 10445 10444 0.7654
a 10445 8668 7.1618
a 10446 8830 0.6797
a 10446 10447 3.3754
a 10446 10447 4.8312
a 10447 11050 4.2415
a 10448 5757 12.1558
a 10449 5770 6.8004
a 10450 5778 5.4058
a 10451 2438 6.3209
a 10451 5639 1.5379
a 10452 10453 12.7166
a 10453 10454 0.7157
a 10453 10452 12.7166
a 10453 10455 94.6755
a 10454 10453 0.7157
a 10454 5570 30.4585
a 10454 5786 7.5672
a 10455 10453 11.9419
a 10456 5777 2.5229
a 10456 11875 7.1719
a 10456 5779 1.7179
a 10457 5769 8.9906
a 10458 5772 5.5375
a 10459 5773 7.0949
a 10460 5716 18.2475
a 10461 10462 5.0486
a 10462 10461 5.0486
a 10462 11993 1.7381
a 10462 5504 15.943
a 10463 5766 21.8822
a 10464 13255 1.0397
a 10464 10465 2.5056
a 10464 5374 8.9006
a 10465 10464 2.5056
a 10466 10467 4.32
a 10467 10468 1.463
a 10467 10466 4.32
a 10467 10469 4.6339
a 10468 10467 1.463
a 10469 11321 0.2822
a 10469 10467 4.6339
a 10469 5351 8.2526
a 10470 5426 23.1833
a 10470 11282 468.6652
a 10470 5424 11.0268
a 10471 6322 0.9418
a 10472 10473 3.2386
a 10473 5135 24.503
a 10473 5136 5.8457
a 10473 10472 3.2386
a 10474 5404 4.8967
a 10474 5400 2.6093
a 10474 5405 12.3545
a 10475 8211 0.4435
a 10475 10476 1.3234
a 10475 8207 269.4911
a 10476 10475 1.3234
a 10477 5278 0.2707
a 10478 5594 1.0685
a 10478 7495 13.7938
a 10478 5485 5.369
a 10479 5756 2.016
a 10480 5725 14.5116
a 10480 5624 5.6232
a 10480 5605 8.7408
a 10481 4913 2.0246
a 10482 11529 7.7213
a 10483 9629 6.1402
a 10484 6237 8.9587
a 10484 6208 16.0351
a 10484 6209 5.8968
a 10484 6235 9.0965
a 10485 7779 0.7085
a 10485 11931 11.533
a 10485 10486 6.1279
a 10486 10485 6.1279
a 10487 9507 4.3387
a 10488 9628 1.4746
a 10489 8745 31.4258
a 10490 10491 1.8857
a 10491 4912 3.029
a 10491 4911 8.6234
a 10491 10490 1.8857
a 10492 4957 7.4498
a 10493 7987 0.3708
a 10494 10495 2.2198
a 10495 10494 9.8427
a 10495 11929 35.6525
a 10495 7998 5.0105
a 10496 7991 1.8454
a 10496 8006 5.0148
a 10496 10497 6.9666
a 10497 10508 3.9744
a 10497 10496 2.345
a 10497 7989 1.957
a 10498 10500 1.0217
a 10498 10499 2.8649
a 10498 8221 3.3617
a 10499 8005 2.8562
a 10499 10498 2.8649
a 10499 8003 3.3588
a 10500 10498 1.0217
a 10500 4940 1.9166
a 10500 12008 5.2934
a 10501 4942 2.8152
a 10501 9421 2.4142
a 10501 9599 72.6766
a 10502 4850 5.688
a 10503 4857 10.0983
a 10504 12663 0.7157
a 10505 9508 13.3416
a 10506 4487 11.5315
a 10506 12478 1.4846
a 10507 7778 3.0305
a 10507 7808 1.1002
a 10508 10497 3.9744
a 10509 7985 4.0644
a 10510 7978 2.1427
a 10510 13250 7.7666
a 10510 10511 4.6354
a 10511 7791 0.9209
a 10511 7774 202.724
a 10511 10510 4.6354
a 10512 5490 4.5994
a 10512 5507 7.6579
a 10512 11157 5.4641
a 10513 5756 8.3506
a 10514 10515 5.6311
a 10514 10515 7.7033
a 10514 10516 7.825
a 10515 10514 5.6311
a 10515 10514 7.7033
a 10515 10516 1.6063
a 10516 10514 7.825
a 10516 10515 1.6063
a 10516 5729 6.917
a 10517 7011 2.394
a 10517 7009 2.165
a 10517 10518 4.1522
a 10518 10517 4.1522
a 10519 7011 2.1823
a 10519 10520 2.9203
a 10519 7010 11.8094
a 10520 10519 2.9203
a 10521 6456 0.6091
a 10521 10670 14.1617
a 10521 11019 11.0594
a 10522 4515 3.739
a 10523 4885 5.323
a 10523 4880 4.7477
a 10523 13342 10.8122
a 10523 4888 3.6871
a 10524 10525 3.87
a 10524 10531 5.2985
a 10525 6579 0.5314
a 10525 10524 3.87
a 10526 10531 1.0339
a 10526 6579 6.4836
a 10527 10528 1.224
a 10527 11876 6.246
a 10528 10525 0.5242
a 10528 10529 3.33
a 10529 10528 3.33
a 10530 11351 4.2178
a 10530 10524 5.2474
a 10531 6575 4.5554
a 10532 9422 3.6965
a 10532 11876 5.7226
a 10533 4526 6.2662
a 10533 4563 18.1001
a 10533 4426 4.2329
a 10534 10535 4.6922
a 10535 4421 5.5678
a 10535 10534 4.6922
a 10535 4472 1.9915
a 10536 4534 2.5063
a 10537 4482 215.8221
a 10537 10538 2.0693
a 10537 13545 2.5718
a 10538 13546 2.7835
a 10538 10537 2.0693
a 10538 13007 7.483
a 10539 5112 366.8951
a 10539 10541 18.5184
a 10539 8899 17.9165
a 10540 5110 22.2545
a 10541 5113 4.5504
a 10541 5119 3.6625
a 10541 10539 18.5184
a 10542 9288 4.2372
a 10543 9287 1.0274
a 10543 9283 5.5008
a 10543 9288 4.0478
a 10544 9289 2.5812
a 10545 6496 2.1593
a 10546 6660 8.4326
a 10546 9460 5.6362
a 10546 10767 2.4458
a 10547 6493 13.5569
a 10547 5115 6.6146
a 10547 5114 7.8386
a 10548 10551 2.8786
a 10548 11709 5.9724
a 10548 11716 4.6706
a 10549 10550 3.5611
a 10550 10551 1.3824
a 10550 10549 3.5611
a 10550 12720 3.5302
a 10551 10548 2.8786
a 10551 10550 1.3824
a 10551 4158 171.077
a 10552 10747 1.8101
a 10552 10597 1.895
a 10552 9197 2.7043
a 10553 10554 1.6877
a 10553 10577 118.7783
a 10553 10588 2.2414
a 10554 10597 162.5541
a 10554 10553 1.6877
a 10554 10579 4.3632
a 10555 10591 0.8194
a 10555 10579 0.967
a 10555 10589 2.0225
a 10556 10560 2.8418
a 10556 10574 2.5286
a 10557 9225 1.5091
a 10557 10558 64.8481
a 10557 10573 3.0398
a 10558 10557 6.3454
a 10558 10559 0.617
a 10558 10574 2.309
a 10559 10560 2.6532
a 10559 10558 0.617
a 10559 9209 118.0508
a 10560 10559 2.6532
a 10560 6741 10.9656
a 10561 4967 2.2673
a 10561 10601 1.5026
a 10561 10563 23.7485
a 10561 10566 4.2696
a 10562 10587 1.8317
a 10562 10564 2.2543
a 10562 10569 3.4265
a 10563 10571 1.5523
a 10563 10561 2.4804
a 10563 10564 4.6598
a 10564 10568 1.5638
a 10564 10562 2.2543
a 10564 10563 103.9025
a 10565 10585 1.6502
a 10565 11608 4.8542
a 10565 4960 2.2997
a 10565 10567 5.5944
a 10566 10586 2.6748
a 10566 10561 4.2696
a 10566 10584 1.8454
a 10567 10569 1.8367
a 10567 10565 5.5944
a 10567 11613 42.6029
a 10568 4965 1.2593
a 10568 4964 28.1593
a 10568 10564 1.5638
a 10568 11915 39.7019
a 10569 10586 1.6351
a 10569 10567 1.8367
a 10569 10562 3.4265
a 10569 10585 5.2474
a 10570 8433 2.3342
a 10570 11238 5.2675
a 10570 4965 7.6702
a 10571 11238 2.2752
a 10571 10563 1.5523
a 10571 4965 186.8615
a 10572 9211 1.8497
a 10572 9212 4.2394
a 10572 9223 6.3562
a 10573 9212 0.8626
a 10573 10557 3.0398
a 10573 8427 10.7561
a 10574 10556 2.5286
a 10574 10558 2.309
a 10574 9225 4.8751
a 10575 10592 1.764
a 10575 10600 3.083
a 10575 10589 1.9253
a 10576 10589 2.0131
a 10576 9210 1.7935
a 10576 9213 3.2825
a 10577 13366 2.2745
a 10577 10553 1.3658
a 10577 9217 288.7147
a 10577 10747 5.6642
a 10578 10590 1.8691
a 10578 9197 1.715
a 10578 10598 1.8518
a 10579 10555 35.3369
a 10579 10598 1.9793
a 10579 10554 4.3632
a 10580 11238 1.5473
a 10580 10581 4.6238
a 10580 9214 5.0897
a 10581 9218 0.6782
a 10581 10580 4.6238
a 10581 9215 3.0334
a 10582 10749 1.625
a 10582 10748 41.3459
a 10582 11918 5.4986
a 10583 3122 2.1319
a 10583 4963 1.6078
a 10583 11605 6.5189
a 10584 4963 1.8274
a 10584 8574 3.4524
a 10584 10566 1.8454
a 10585 8575 1.6186
a 10585 10565 4.1211
a 10585 11878 1.7921
a 10585 10569 113.3963
a 10586 10569 1.6351
a 10586 10566 2.6748
a 10586 8575 75.1212
a 10586 10587 3.7346
a 10587 10601 20.1434
a 10587 10562 1.8317
a 10587 10586 3.7346
a 10588 10600 2.4372
a 10588 10553 2.2414
a 10588 10589 3.1104
a 10589 10576 2.0131
a 10589 10555 2.0225
a 10589 10588 3.1104
a 10589 10575 1.9253
a 10590 2977 1.6862
a 10590 10578 50.3591
a 10590 10591 3.9046
a 10591 9210 1.4162
a 10591 10555 0.8194
a 10591 10590 3.9046
a 10592 10575 17.2573
a 10593 9215 1.7042
a 10593 10594 3.7195
a 10593 9216 1.6394
a 10594 9219 1.4969
a 10594 9218 1.548
a 10594 10593 3.7195
a 10595 9216 1.8101
a 10595 9219 1.8151
a 10595 10596 12.8605
a 10596 9220 1.7575
a 10596 9217 1.6078
a 10596 10595 2.9239
a 10597 10552 1.895
a 10597 10554 2.0837
a 10597 13326 0.7466
a 10597 10598 4.4237
a 10598 10578 1.8518
a 10598 10579 1.9793
a 10598 10597 4.4237
a 10599 10600 1.4897
a 10600 10599 1.4897
a 10600 10575 3.083
a 10600 10588 2.4372
a 10601 10561 1.5026
a 10601 10587 1.309
a 10601 12536 0.9403
a 10602 10604 4.7513
a 10603 9259 1.859
a 10603 12716 6.6629
a 10603 11523 4.8312
a 10604 9261 1.3918
a 10604 10602 4.7513
a 10604 9906 4.0421
a 10605 10606 5.0839
a 10605 6765 13.2163
a 10605 9262 2.4574
a 10606 9261 3.6238
a 10606 9906 2.4638
a 10606 10605 5.0839
a 10607 4968 3.1774
a 10607 10619 2.5243
a 10607 10721 8.005
a 10607 10622 2.7238
a 10607 5007 11.3774
a 10608 11422 6.8184
a 10608 10721 87.8633
a 10608 10724 10.7899
a 10609 733 225.0833
a 10609 6765 18.3967
a 10610 12718 17.415
a 10610 6781 0.6271
a 10610 9969 8.0928
a 10611 10612 2.7223
a 10611 12719 1.795
a 10611 10614 1.8504
a 10612 9330 20.0862
a 10612 12718 1.7647
a 10612 10611 2.7223
a 10613 6780 2.4725
a 10613 9330 1.6452
a 10613 10617 2.7058
a 10614 9330 2.5841
a 10614 10611 1.8504
a 10614 10617 1.6726
a 10615 10616 2.1492
a 10615 10618 5.832
a 10615 11453 6.1337
a 10616 10615 45.0537
a 10616 6781 4.1566
a 10616 12719 0.7236
a 10617 10614 1.6726
a 10617 10618 2.1302
a 10617 10613 2.7058
a 10618 10617 3.8708
a 10618 11646 28.9633
a 10618 10615 5.832
a 10619 10622 0.594
a 10619 10607 2.5243
a 10619 10620 2.6316
a 10620 4971 0.625
a 10620 10769 39.2613
a 10620 10619 2.6316
a 10621 10721 3.5957
a 10622 10619 38.9999
a 10622 10607 2.7238
a 10622 4971 2.5956
a 10623 6446 4.1602
a 10623 6478 21.7498
a 10623 9188 21.8642
a 10624 6391 5.0393
a 10624 6645 4.5626
a 10625 12028 8.8718
a 10625 6737 12.6475
a 10625 9000 71.1102
a 10626 10627 6.2712
a 10627 12707 2.2363
a 10627 11571 1.3262
a 10627 10626 6.2712
a 10628 6613 4.608
a 10629 5343 4.5706
a 10630 5312 0.9612
a 10630 10631 9.2412
a 10630 5343 17.6472
a 10631 3608 1.265
a 10631 5358 10.602
a 10631 10630 9.2412
a 10632 10633 5.1761
a 10632 6697 4.4302
a 10632 6527 6.2388
a 10633 7369 2.5106
a 10633 6527 2.6251
a 10633 10632 5.1761
a 10634 6578 1.0634
a 10635 6725 1.985
a 10636 9135 5.4972
a 10637 6388 5.3784
a 10638 6508 9.2023
a 10639 5021 3.4265
a 10640 5029 3.5402
a 10640 5030 6.9782
a 10640 5001 17.2016
a 10641 5064 0.972
a 10642 5357 9.684
a 10643 7256 3.2162
a 10643 5093 5.981
a 10643 5081 9.0986
a 10644 9963 1.471
a 10644 5350 7.0488
a 10644 10645 9.9598
a 10645 5347 3.2479
a 10645 3601 4.6073
a 10645 10644 102.8654
a 10646 5309 0.6401
a 10646 11760 13.4395
a 10646 13541 6.9833
a 10647 12952 1.6567
a 10647 7378 2.3393
a 10647 7378 8.3462
a 10647 7378 8.928
a 10648 6904 2.2745
a 10648 10654 8.0287
a 10648 7376 7.9538
a 10649 10650 4.9939
a 10649 6902 1.8331
a 10649 7379 6.3151
a 10650 10649 4.9939
a 10650 10651 3.0406
a 10650 6904 6.7687
a 10651 6904 2.6626
a 10651 6902 5.1682
a 10651 10650 3.0406
a 10652 7379 0.8856
a 10653 5044 1.4681
a 10654 7379 3.9859
a 10654 6902 2.4012
a 10654 10648 8.0287
a 10655 5099 2.2691
a 10655 10656 1.8389
a 10655 5098 2.196
a 10656 10655 1.8389
a 10657 5066 0.8834
a 10658 7076 9.085
a 10659 7321 43.827
a 10659 9291 11.7698
a 10659 7320 19.9596
a 10660 7077 2.6719
a 10660 9081 0.7942
a 10660 6372 15.6787
a 10661 12705 1.9584
a 10661 6626 9.5112
a 10661 9170 5.9112
a 10662 6672 8.9597
a 10663 6466 1.975
a 10663 10664 81.6202
a 10663 6497 3.595
a 10664 6501 0.4601
a 10664 10663 7.0877
a 10664 6620 3.8347
a 10665 5341 10.651
a 10666 8398 5.3957
a 10666 10669 571.0488
a 10666 6706 161.1421
a 10667 9181 8.1245
a 10668 6761 1.7417
a 10669 6558 5.3741
a 10669 6473 6.3382
a 10669 6483 237.29
a 10669 10666 15.5117
a 10670 11656 3.2299
a 10670 10521 14.1617
a 10670 11914 6.6377
a 10671 6621 4.3625
a 10672 10708 10.3577
a 10673 6435 11.4134
a 10674 6533 9.6826
a 10675 6544 21.6281
a 10676 11196 4.3358
a 10676 4157 8.2613
a 10676 6470 4.4143
a 10677 10680 1.8158
a 10677 12825 0.2844
a 10677 10683 3.0751
a 10678 10684 2.8178
a 10679 10680 3.0766
a 10679 10682 22.4953
a 10679 10683 1.7338
a 10680 10679 3.0766
a 10680 10677 1.8158
a 10680 10681 1.9231
a 10681 10680 1.9231
a 10681 11225 1.4508
a 10681 10688 1.6229
a 10682 10679 1.8288
a 10682 10686 1.5768
a 10682 11225 1.6279
a 10683 10679 1.7338
a 10683 10677 3.0751
a 10683 10690 1.6754
a 10684 10678 0.8395
a 10684 10690 1.4256
a 10684 12162 4.4446
a 10685 10686 1.4947
a 10685 11228 0.7502
a 10685 11227 3.155
a 10686 10685 1.4947
a 10686 10682 1.5768
a 10686 10690 3.469
a 10687 11226 1.2614
a 10687 10688 0.4529
a 10687 11229 20.0817
a 10688 10681 1.6229
a 10688 10687 0.4529
a 10688 10689 3.7562
a 10689 10688 32.4873
a 10689 12825 51.2433
a 10689 11229 5.117
a 10690 10683 1.6754
a 10690 10684 1.4256
a 10690 10686 77.2391
a 10691 9191 0.355
a 10691 6550 9.4802
a 10691 12825 2.5704
a 10692 6498 0.6077
a 10693 10694 1.9282
a 10694 9175 5.0486
a 10694 10693 1.9282
a 10694 9176 2.2939
a 10695 9191 7.4952
a 10695 57 2.0477
a 10695 6470 13.1011
a 10696 6639 7.8386
a 10697 9898 209.4149
a 10698 6791 8.4464
a 10699 6800 1.7791
a 10699 9918 129.6924
a 10699 10700 8.254
a 10700 10699 3.0276
a 10700 9919 2.2558
a 10700 9920 2.34
a 10701 13503 2.5481
a 10701 11413 3.3696
a 10701 9837 2.1874
a 10702 11414 3.2652
a 10702 11413 12.5894
a 10702 10703 1.2895
a 10703 10702 1.2895
a 10704 11412 4.6447
a 10705 13488 0.7769
a 10705 11434 4.8031
a 10705 13487 102.0569
a 10705 6797 18.5248
a 10706 10707 5.0494
a 10707 11412 1.0901
a 10707 10706 5.0494
a 10707 6798 2.5042
a 10708 6682 27.2405
a 10708 10672 2.2738
a 10708 10709 9.3578
a 10709 10708 9.3578
a 10710 6732 2.6453
a 10710 6433 190.4354
a 10710 10711 6.5246
a 10711 10710 6.5246
a 10712 4285 17.5874
a 10713 10717 1.1232
a 10714 10715 1.2305
a 10715 10717 2.6892
a 10715 10714 1.2305
a 10715 10716 3.1327
a 10716 8885 1.553
a 10716 3483 5.0479
a 10716 10715 3.1327
a 10717 10713 10.056
a 10717 10715 2.6892
a 10717 10718 3.1349
a 10718 8885 3.7184
a 10718 4369 4.5821
a 10718 10717 3.1349
a 10718 8886 1.5854
a 10719 153 0.6804
a 10719 8598 5.8522
a 10720 6690 5.3294
a 10721 10607 8.005
a 10721 10608 7.6234
a 10721 10621 3.5957
a 10722 10728 2.245
a 10723 10731 3.0665
a 10724 10727 2.0412
a 10724 10732 1.6308
a 10724 10608 10.7899
a 10725 10727 3.2443
a 10726 10727 2.3551
a 10727 10728 1.5408
a 10727 10724 2.0412
a 10727 10725 3.2443
a 10727 10726 2.3551
a 10728 10733 16.5856
a 10728 10727 1.5408
a 10728 10731 4.7311
a 10728 10722 2.245
a 10729 5007 2.934
a 10730 10731 2.0995
a 10731 10730 2.0995
a 10731 10728 4.7311
a 10731 10723 3.0665
a 10732 10724 1.6308
a 10733 10728 3.2695
a 10734 10735 1.0613
a 10734 8474 5.2978
a 10734 8469 5.7708
a 10735 10734 1.0613
a 10736 6490 1130.0116
a 10736 6490 14.7917
a 10736 6440 0.5033
a 10737 13315 0.1973
a 10737 7373 486.6161
a 10737 8469 3.137
a 10738 6634 5.7816
a 10739 6458 27.8172
a 10740 8457 0.4946
a 10741 8457 2.1319
a 10742 9290 1.5732
a 10743 9290 1.3975
a 10744 6388 3.0652
a 10744 6508 7.3562
a 10744 6605 3.2515
a 10745 4989 3.5755
a 10745 10746 2.281
a 10745 4996 34.687
a 10746 10745 2.281
a 10747 4962 1.9836
a 10747 10552 1.8101
a 10747 10577 5.6642
a 10748 12537 1.5422
a 10748 4961 18.072
a 10748 10582 5.3755
a 10748 11601 3.317
a 10749 10582 1.625
a 10749 13366 4.0212
a 10749 4961 201.525
a 10750 11608 3.2558
a 10750 10751 29.9911
a 10750 10752 2.6777
a 10751 2893 5.4151
a 10751 11877 5.2877
a 10751 10750 3.564
a 10752 12157 1.8353
a 10752 10750 2.6777
a 10753 10755 4.4165
a 10754 11770 7.6879
a 10755 11770 1.6812
a 10755 4953 4.1357
a 10755 10753 4.4165
a 10756 4333 4.5958
a 10756 10759 3.6086
a 10757 4154 0.4313
a 10758 54 2.4307
a 10758 10757 3.541
a 10759 8220 0.5033
a 10760 4954 9.7841
a 10761 10762 3.515
a 10762 7983 1.9584
a 10762 10761 3.515
a 10763 10764 5.7571
a 10764 6800 2.9945
a 10764 6813 2.8375
a 10764 10763 84.1631
a 10765 11448 1.5905
a 10765 9237 2.0002
a 10765 10766 2.5214
a 10766 10765 2.5214
a 10767 10546 2.4458
a 10768 6438 1.602
a 10769 10771 4.7066
a 10769 10770 2.232
a 10769 10620 14.7658
a 10770 9270 1.1628
a 10770 10769 2.232
a 10771 10769 16.1772
a 10771 10770 2.2471
a 10772 7069 9.2189
a 10773 6828 6.7111
a 10774 9897 227.7501
a 10774 8146 8.5975
a 10775 6790 11.6251
a 10776 11840 3.1889
a 10777 6848 1.206
a 10777 6844 2.821
a 10777 10779 4.8182
a 10777 10778 4.3322
a 10778 10777 4.3322
a 10779 9893 0.9828
a 10779 10777 38.4838
a 10779 6846 3.2494
a 10780 6843 1.3802
a 10781 8389 1.7014
a 10782 2315 7.7926
a 10782 2292 3.5964
a 10782 10783 12.4502
a 10783 2323 6.1409
a 10783 2314 3.6727
a 10783 10782 46.2277
a 10784 2337 906.5785
a 10785 2330 3.5258
a 10786 10787 4.4496
a 10787 2343 4.9687
a 10787 2365 11.605
a 10787 10786 4.4496
a 10788 10789 3.4942
a 10788 10790 0.6667
a 10788 10791 6.5146
a 10789 10788 3.4942
a 10790 10788 0.6667
a 10791 4835 16.2459
a 10791 2366 12.6554
a 10791 10788 6.5146
a 10792 2293 5.3424
a 10794 7490 11.4624
a 10795 6866 5.2488
a 10795 10808 10.3399
a 10795 6868 2.8087
a 10796 12801 5.927
a 10796 4904 6.7327
a 10797 7009 3.1291
a 10798 4561 13.3463
a 10799 3429 13.9334
a 10799 11986 0.6826
a 10800 12283 2.6194
a 10800 10801 12.8462
a 10801 10802 1.5926
a 10801 10800 12.8462
a 10802 10801 44.5098
a 10802 7813 8.3909
a 10802 12283 65.3001
a 10803 10805 3.7966
a 10803 856 7.4174
a 10803 10804 2.0952
a 10804 10803 2.0952
a 10805 13159 4.9982
a 10805 10803 3.7966
a 10806 10807 3.8002
a 10807 10808 1.1772
a 10807 9327 2.2918
a 10807 10806 3.8002
a 10808 10807 1.1772
a 10808 6867 1.8814
a 10808 10795 10.3399
a 10809 10810 1.2737
a 10809 10811 31.8426
a 10809 763 35.519
a 10810 3569 1.4119
a 10810 10811 10.5698
a 10810 10809 1.2737
a 10811 10810 1.1909
a 10811 10809 6.5015
a 10811 762 36.1447
a 10811 764 8.7862
a 10812 10936 3.7267
a 10812 5144 12.8182
a 10812 5147 5.2135
a 10813 2856 0.7034
a 10813 10814 6.228
a 10813 3113 4.9889
a 10814 10813 6.228
a 10815 9706 5.6117
a 10815 7292 210.367
a 10816 7849 1.8785
a 10816 10817 3.1853
a 10817 9038 4.219
a 10818 12844 37.1369
a 10818 12845 4.9198
a 10819 11437 9.8856
a 10820 10837 0.7214
a 10820 2453 8.6494
a 10820 10821 23.1912
a 10821 8965 0.6674
a 10821 1539 8.7538
a 10821 10823 17.6825
a 10822 12252 0.7733
a 10822 3211 8.7228
a 10822 10820 23.5613
a 10823 11335 1.8641
a 10823 11334 5.0659
a 10824 6997 31.0939
a 10824 165 29.309
a 10824 9978 75.9395
a 10825 11108 1.3874
a 10825 5148 1.2629
a 10826 1659 1.3558
a 10826 11761 9.0605
a 10827 10828 1.1981
a 10827 150 9.3154
a 10828 7801 117.9186
a 10828 10827 80.4941
a 10829 10830 8.5838
a 10830 7603 0.6379
a 10830 7170 2.4113
a 10830 10829 21.9735
a 10831 10833 2.4084
a 10832 10833 3.168
a 10833 4196 6.4562
a 10833 10831 2.4084
a 10833 10832 3.168
a 10834 12245 4.0457
a 10834 7171 10.9836
a 10834 5873 6.6456
a 10835 10836 19.2989
a 10836 10835 87.5795
a 10836 5882 9.3924
a 10836 5883 1.9685
a 10837 10820 19.1373
a 10837 8965 23.1314
a 10837 11160 1.4278
a 10838 6171 4.8233
a 10838 12567 5.7694
a 10838 6070 10.7323
a 10839 10840 8.3059
a 10840 6213 2.813
a 10840 95 22.5994
a 10840 10839 8.3059
a 10841 9463 0.3737
a 10842 12542 0.6444
a 10842 13118 16.0783
a 10842 10844 11.7108
a 10843 7180 9.6793
a 10843 10844 1.2132
a 10843 10845 5.9724
a 10844 11864 18.3665
a 10844 10842 358.6079
a 10844 10843 1.2132
a 10845 7176 5.9479
a 10845 9463 2.3854
a 10845 10843 5.9724
a 10846 10850 1.0757
a 10846 6338 2.4264
a 10846 10847 2.6381
a 10847 10846 2.6381
a 10848 10853 2.6856
a 10848 10850 3.2623
a 10848 10849 4.3524
a 10849 10848 4.3524
a 10850 10848 3.2623
a 10850 10846 22.6405
a 10850 10851 5.2812
a 10851 10850 5.2812
a 10852 10853 16.7709
a 10853 10848 80.8827
a 10853 10852 3.7944
a 10853 10854 1.6402
a 10853 7897 15.9545
a 10854 10853 1.6402
a 10855 5796 23.8523
a 10855 5878 4.9406
a 10855 11863 8.9705
a 10856 13615 1.2334
a 10856 7396 421.2039
a 10856 10857 356.3061
a 10857 7284 7.9762
a 10858 10856 8.0554
a 10858 38 1.0426
a 10859 10860 3.4258
a 10860 10864 3.9117
a 10860 13114 14.1221
a 10860 10859 3.4258
a 10861 10865 2.4379
a 10862 10864 3.4632
a 10863 11705 28.1492
a 10864 10860 1.3896
a 10864 11705 0.5897
a 10864 10862 3.4632
a 10865 10861 2.4379
a 10865 13114 4.3049
a 10865 4211 11.9146
a 10866 6041 1.1527
a 10867 6034 1.4774
a 10868 10869 2.8901
a 10868 6035 3.0744
a 10868 6036 4.6685
a 10869 10868 2.8901
a 10870 6055 5.112
a 10871 6056 1.8086
a 10872 9608 6.989
a 10872 4101 30.2665
a 10872 13357 1.0555
a 10873 10874 2.79
a 10873 4106 4.2545
a 10873 8314 7.4239
a 10874 10873 2.79
a 10875 4106 2.8037
a 10876 10877 743.3743
a 10877 4282 3.06
a 10877 4283 3.4502
a 10877 10876 9.1008
a 10878 10879 3.9564
a 10878 10883 7.5298
a 10878 12737 13.2919
a 10879 10878 3.9564
a 10880 4427 1.5005
a 10880 4488 11.8159
a 10881 10882 2.0815
a 10882 10881 2.0815
a 10882 10883 2.0297
a 10882 11274 4.0205
a 10883 10882 2.0297
a 10883 4148 6.9149
a 10883 10878 7.5298
a 10884 8784 6.9746
a 10884 12312 194.6429
a 10884 10885 4.5094
a 10885 10884 4.5094
a 10886 10887 3.0233
a 10887 7483 3.1054
a 10887 10889 2.3875
a 10887 10886 3.0233
a 10888 10889 2.9246
a 10889 10887 2.3875
a 10889 7481 3.0103
a 10889 10888 2.9246
a 10890 8101 3.4639
a 10891 10892 12.0917
a 10892 5996 6.6406
a 10892 5984 3.7058
a 10892 10891 12.0917
a 10893 7271 15.3742
a 10894 8092 1.9476
a 10894 10893 182.8134
a 10895 7708 8.1734
a 10896 10895 4.5806
a 10896 32 2.7317
a 10897 8089 70.2965
a 10898 10897 2.9894
a 10898 2450 2.2478
a 10899 10105 2.9182
a 10899 2353 10.0397
a 10899 11424 12.1608
a 10900 10105 3.8506
a 10900 3385 10.721
a 10900 10901 7.0006
a 10901 10900 7.0006
a 10901 3384 4.0514
a 10901 2353 14.6493
a 10902 2373 3.5842
a 10903 10904 1.3334
a 10904 3751 3.3955
a 10904 10903 1.3334
a 10904 4018 8.3434
a 10905 8099 2.2111
a 10905 12318 0.6847
a 10905 11264 7.7184
a 10906 3364 1.2521
a 10907 7608 10.2154
a 10907 11927 46.9378
a 10907 12779 6.043
a 10908 13033 1.2809
a 10908 10909 40.5506
a 10909 7278 6.2986
a 10910 401 0.4118
a 10911 2275 3.5143
a 10911 2280 14.1192
a 10911 11271 4.7326
a 10912 10913 1.0498
a 10912 12211 7.447
a 10913 10912 1.0498
a 10913 10915 18.9468
a 10914 3290 16.956
a 10914 10915 1.0202
a 10915 11885 1.4299
a 10915 12196 11.1737
a 10915 10914 3.9404
a 10916 10917 1.0678
a 10916 7628 11.1154
a 10917 10916 1.0678
a 10917 7623 22.405
a 10918 10919 3.5408
a 10918 7626 3.69
a 10919 10918 0.9612
a 10919 3266 8.6155
a 10920 10211 16.7256
a 10920 2220 7.7486
a 10921 7762 5.4252
a 10922 8810 0.2822
a 10922 11998 1.6114
a 10922 8815 3.0751
a 10923 8809 9.4284
a 10923 11998 4.626
a 10924 2723 1.0721
a 10924 8833 14.7197
a 10925 10926 193.69
a 10926 11061 0.6811
a 10926 10925 5.5742
a 10927 10928 1.0584
a 10927 7630 5.6282
a 10928 10927 1.0584
a 10928 3660 16.9956
a 10929 3891 0.8849
a 10929 11064 22.8024
a 10930 10931 5.2243
a 10931 2671 6.5153
a 10931 8690 16.492
a 10931 10930 5.2243
a 10932 10933 0.589
a 10933 10932 17.2377
a 10933 9757 8.4348
a 10933 12608 8.6976
a 10934 164 5.9018
a 10934 9504 1.2766
a 10936 10812 82.3868
a 10937 11681 6.7966
a 10937 9328 8.3506
a 10937 6550 2.3436
a 10939 3569 9.9094
a 10940 6916 21.3084
a 10941 6957 4.289
a 10941 12459 2.5891
a 10942 6925 2.389
a 10942 9069 0.6674
a 10943 8817 4.014
a 10943 8819 4.7225
a 10943 12741 5.1948
a 10944 135 4.1594
a 10944 12584 0.2585
a 10944 42 26.627
a 10945 13573 10.9915
a 10945 9713 12.0182
a 10946 10947 2.7734
a 10947 10946 2.7734
a 10947 9539 5.5966
a 10947 8601 13.1558
a 10948 7327 7.1057
a 10948 7326 16.4124
a 10948 3555 7.1374
a 10949 8373 1.4868
a 10949 10960 9.0634
a 10950 10159 1.9958
a 10950 12773 1.9771
a 10951 10953 42.118
a 10951 10952 6.4289
a 10951 13542 7.925
a 10952 10951 6.4289
a 10953 1938 2.4343
a 10953 10951 4.3085
a 10953 1993 5.4554
a 10954 1991 7.2994
a 10955 10956 10.4918
a 10956 3148 6.0386
a 10956 10955 10.4918
a 10956 2925 14.9926
a 10957 10958 31.9183
a 10957 11092 1.7215
a 10958 10957 31.9183
a 10958 10959 3.4762
a 10959 10960 7.3224
a 10959 11289 4.9846
a 10960 10007 6.1265
a 10960 10959 7.3224
a 10960 8373 8.833
a 10961 13369 31.9702
a 10961 2363 2.5992
a 10962 10997 0.6192
a 10962 11959 2.9995
a 10963 2680 7.2655
a 10964 8657 3.0139
a 10965 10966 2.7698
a 10966 10965 2.7698
a 10966 10968 1.4263
a 10966 12593 25.3365
a 10967 10968 2.8951
a 10968 10967 2.8951
a 10968 10966 1.4263
a 10968 8657 2.0873
a 10969 10970 4.7268
a 10970 10313 4.973
a 10970 8619 2.6734
a 10970 10969 4.7268
a 10971 13214 127.6521
a 10971 10972 5.369
a 10971 8632 4.6008
a 10972 8658 2.3126
a 10972 10973 2.6712
a 10972 10971 5.369
a 10973 10972 2.6712
a 10974 13564 2.6986
a 10974 8638 3.5006
a 10974 13563 1.2254
a 10975 4026 32.0904
a 10975 8931 3.5064
a 10976 3658 7.6385
a 10977 3753 4.986
a 10978 3296 65.6171
a 10979 7767 65.2636
a 10980 3286 0.2095
a 10980 3237 4.5425
a 10980 3291 11.8181
a 10981 13017 0.5587
a 10981 8932 9.769
a 10982 10981 5.5486
a 10982 11179 8.5442
a 10983 13234 0.6782
a 10983 8537 0.8676
a 10983 11235 191.6437
a 10984 10985 3.6886
a 10985 10984 3.6886
a 10985 3257 10.6934
a 10985 3252 91.0437
a 10986 4552 4.4136
a 10986 4393 14.9579
a 10986 10987 12.6936
a 10987 4400 4.4021
a 10987 10988 4.464
a 10987 10986 12.6936
a 10988 10987 4.464
a 10988 4542 4.8391
a 10988 4393 12.6929
a 10989 2147 0.5429
a 10990 859 0.9266
a 10991 11979 2.6705
a 10992 9794 1.6891
a 10992 13372 7.0344
a 10993 3585 0.2045
a 10994 8321 0.6898
a 10994 8322 3.6806
a 10994 12624 8.4679
a 10995 5934 0.5652
a 10995 11010 11.0952
a 10995 12516 6.4116
a 10996 7201 0.5875
a 10996 10995 9.3005
a 10996 7461 5.9414
a 10997 12551 2.1053
a 10997 10962 1.7516
a 10998 13087 12.3646
a 10998 4777 6.6672
a 10998 13086 23.891
a 10999 7729 3.4049
a 10999 426 26.0272
a 10999 3539 4.2552
a 11000 3128 6.1711
a 11000 3046 12.0514
a 11001 10052 2.8469
a 11001 1863 1.6106
a 11002 774 3.8095
a 11003 74 0.7942
a 11003 12311 958.5309
a 11004 580 13.9918
a 11005 10083 0.6581
a 11006 10301 82.831
a 11007 10299 570.6776
a 11008 11174 142.2425
a 11008 8164 35.0107
a 11009 7206 3.4805
a 11010 13109 0.2909
a 11010 10995 11.0952
a 11010 5939 4.5482
a 11010 12632 7.7047
a 11011 7459 3.4834
a 11011 5939 67.3651
a 11011 5938 7.5413
a 11012 8342 1.3226
a 11013 8322 5.0983
a 11014 11015 6.3943
a 11014 3307 10.0454
a 11015 11016 11.822
a 11015 11016 7.0092
a 11015 11016 11.6791
a 11015 11014 188.6057
a 11016 11015 4.5468
a 11016 11015 7.0092
a 11016 11015 106.2605
a 11017 11433 7.7902
a 11018 4610 0.6631
a 11019 6648 0.4882
a 11019 11170 8.8207
a 11019 10521 11.4167
a 11020 11021 11.3177
a 11021 9606 1.5833
a 11021 227 3.2969
a 11021 11020 11.3177
a 11022 416 0.9518
a 11023 25 9.1699
a 11023 728 6.714
a 11024 8503 609.2081
a 11025 11026 6.4094
a 11026 12149 4.531
a 11026 1316 4.379
a 11026 11025 6.4094
a 11027 863 6.4519
a 11028 7393 49.0723
a 11028 12176 3.929
a 11029 11032 0.7402
a 11029 9450 9.3794
a 11030 12160 5.4259
a 11030 11031 2.0866
a 11031 7289 2.0722
a 11032 11029 0.7402
a 11032 11033 6.2352
a 11033 12160 3.1308
a 11033 11031 5.6765
a 11034 1196 6.3958
a 11034 11035 9.509
a 11034 1200 56.3083
a 11035 13520 2.2658
a 11035 1112 5.7766
a 11035 11034 9.509
a 11036 8923 7.4786
a 11036 7644 6.6571
a 11037 11038 5.6462
a 11038 3236 0.3046
a 11038 3289 4.6238
a 11038 11037 5.6462
a 11039 8689 8.5932
a 11040 8307 39.3862
a 11041 768 11.2061
a 11041 758 23.7996
a 11041 757 12.8398
a 11042 7436 1.3421
a 11043 1103 3.6814
a 11043 10949 1.4501
a 11044 1867 3.5784
a 11044 2937 3.5806
a 11044 1873 11.2421
a 11045 4516 1.8936
a 11047 12194 0.9526
a 11047 11046 3.1651
a 11048 7444 1.1297
a 11048 11511 0.9504
a 11048 12588 215.1856
a 11049 7111 12.6048
a 11049 5754 3.7246
a 11049 11893 29.4627
a 11050 7601 0.7488
a 11050 11051 2.3962
a 11051 7602 0.7034
a 11051 7563 5.004
a 11052 4615 0.6761
a 11052 13163 81.6065
a 11053 730 1.0094
a 11053 10274 1.3111
a 11054 2291 39.4186
a 11055 11054 17.2058
a 11055 7968 6.3562
a 11056 11057 1.0685
a 11056 7415 12.2062
a 11057 3942 0.9886
a 11057 12525 1.3068
a 11058 7409 12.9694
a 11058 11059 1.1074
a 11059 8069 12.3624
a 11059 11058 1.1074
a 11060 9472 0.8525
a 11060 11061 1.0152
a 11061 11060 1.0152
a 11061 10929 7.4095
a 11062 8671 0.8014
a 11062 1804 13.3762
a 11063 11064 0.8194
a 11063 11116 32.382
a 11064 11063 35.2395
a 11064 11062 8.1924
a 11065 2486 0.6307
a 11065 9696 20.1319
a 11066 11042 18.8042
a 11067 11066 4.1782
a 11067 11065 0.9108
a 11068 7270 4.5734
a 11069 93 4.8997
a 11069 92 3.4279
a 11070 1085 11.2529
a 11070 93 2.3767
a 11070 11069 3.3271
a 11071 87 0.5026
a 11071 7581 2.5985
a 11071 11073 21.9521
a 11072 11071 5.1768
a 11072 2528 36.8317
a 11073 87 4.1897
a 11073 3090 17.9849
a 11074 6989 56.3947
a 11074 9708 3.528
a 11075 13374 30.2004
a 11075 7728 11.3545
a 11076 9402 5.3863
a 11077 9430 4.9522
a 11077 11078 15.1711
a 11078 11077 15.1718
a 11078 2200 17.7019
a 11079 10099 1.597
a 11079 7391 78.1094
a 11080 7341 39.0859
a 11081 11082 1.1203
a 11081 11950 179.8721
a 11082 7431 12.1644
a 11083 12534 0.1994
a 11084 2189 6.4051
a 11084 11027 68.301
a 11085 2860 5.0227
a 11085 3323 9.4306
a 11085 1776 0.7078
a 11086 2320 8.7811
a 11087 2336 25.7018
a 11088 5735 4.5338
a 11089 2602 8.3966
a 11090 11091 8.9647
a 11090 13405 2.0002
a 11090 2080 19.7748
a 11091 11090 25.4332
a 11091 11093 0.373
a 11092 11091 1.4976
a 11093 10957 1.4717
a 11093 11092 1.1225
a 11094 11095 73.0178
a 11095 11578 6.7514
a 11095 3339 5.4396
a 11095 11094 6.7356
a 11096 11097 11.6064
a 11097 7956 14.8506
a 11097 2571 0.8021
a 11097 11096 11.6064
a 11098 8064 8.9093
a 11098 11099 6.3324
a 11098 9699 141.6503
a 11099 11588 7.9992
a 11099 11098 6.3324
a 11099 11100 41.425
a 11100 11099 5.0558
a 11101 147 5.8687
a 11102 11103 13.7023
a 11103 11642 87.2213
a 11103 9358 9.6365
a 11103 11102 13.7023
a 11104 504 20.5927
a 11104 11401 57.8441
a 11105 1983 5.5498
a 11106 1985 6.7048
a 11107 681 2.5488
a 11107 680 9.6595
a 11108 10825 1.3874
a 11108 12832 3.2054
a 11108 6060 223.5644
a 11109 7029 3.7944
a 11109 2107 3.2213
a 11109 886 8.023
a 11110 9286 1.8
a 11110 7589 23.4578
a 11110 7591 4.3618
a 11111 9283 12.6868
a 11111 9284 3.0146
a 11111 11112 2.5164
a 11112 11111 33.3956
a 11113 3957 16.7177
a 11113 3937 3.5647
a 11113 8861 13.819
a 11114 10335 5.1362
a 11115 10335 1.9678
a 11116 10336 7.987
a 11116 8338 243.918
a 11117 11122 2.5992
a 11118 8454 2.9974
a 11118 9954 2.101
a 11118 11117 2.7382
a 11119 11120 16.6446
a 11119 12350 1.2586
a 11119 11121 2.1715
a 11120 8754 2.8706
a 11121 9954 0.617
a 11121 11120 2.0254
a 11121 11119 2.1715
a 11122 896 22.4647
a 11122 11121 4.8175
a 11123 7727 38.1665
a 11123 11831 6.9962
a 11124 11125 2.5416
a 11124 11831 4.3553
a 11124 11249 307.0616
a 11125 11124 2.5416
a 11125 11126 6.9998
a 11125 11251 18.0799
a 11126 11250 1.5451
a 11126 11249 1.4443
a 11126 11125 6.9998
a 11127 11893 0.4824
a 11127 7111 2.286
a 11128 12910 1.8389
a 11128 7028 3.528
a 11128 4767 46.6104
a 11129 11130 3.6562
a 11129 11131 1.8317
a 11129 13485 4.7297
a 11130 11129 3.6562
a 11130 13485 1.3018
a 11130 6796 4.307
a 11131 11595 7.2208
a 11131 9926 40.5705
a 11131 11129 1.8317
a 11132 4836 2.7936
a 11133 5723 3.4366
a 11134 2304 0.8258
a 11135 5441 39.8748
a 11135 5684 1.381
a 11135 9848 12.6216
a 11138 10362 6.529
a 11139 10018 1.4357
a 11139 11140 1.7971
a 11140 9881 2.4775
a 11141 10027 5.125
a 11141 10021 1.499
a 11142 6244 2.7979
a 11143 8109 4.6886
a 11144 7296 11.0837
a 11144 11143 4.14
a 11145 71 1.0474
a 11145 8089 20.8699
a 11146 8815 4.8118
a 11147 12623 10.8137
a 11148 11147 1.7942
a 11148 3308 6.0523
a 11149 11147 7.9236
a 11149 11148 6.2611
a 11150 11242 1.6668
a 11150 692 1.1405
a 11150 9056 4.4179
a 11151 8490 9.3866
a 11152 853 7.0495
a 11152 8577 17.4146
a 11153 10329 66.0894
a 11154 10935 35.4377
a 11154 11246 5.2373
a 11155 11545 4.8881
a 11156 8965 1.4256
a 11156 11160 23.1134
a 11156 13449 3.6281
a 11157 10512 5.4641
a 11158 681 2.1427
a 11158 458 14.4223
a 11158 11107 1.7899
a 11159 7658 7.3145
a 11159 2142 3.6518
a 11160 10837 1.4278
a 11160 8964 12.4769
a 11160 1862 9.5465
a 11161 11162 1.7244
a 11161 9442 3.8786
a 11162 11161 1.7244
a 11163 8383 79.1139
a 11163 12483 11.4264
a 11164 10935 19.062
a 11164 11006 26.9798
a 11165 145 106.6211
a 11165 8055 2.759
a 11165 12481 10.656
a 11166 9164 2.3148
a 11166 63 17.023
a 11167 11505 1.5588
a 11167 6600 5.1221
a 11167 11168 4.0255
a 11168 11167 4.0255
a 11169 11170 2.1996
a 11170 6600 11.0671
a 11170 11019 8.8207
a 11170 11169 2.1996
a 11171 11172 3.2026
a 11171 11923 2.0729
a 11171 9173 2.9635
a 11171 13543 7.2626
a 11172 11171 3.2026
a 11173 621 1657.2927
a 11173 12306 83.8915
a 11174 9436 17.1806
a 11175 10757 1.4774
a 11175 54 3.5309
a 11176 10236 0.4838
a 11177 12133 0.5105
a 11177 7528 5.8126
a 11178 12134 0.6638
a 11178 13038 9.2506
a 11179 2444 0.6905
a 11179 11178 17.0021
a 11180 11179 0.6372
a 11180 10981 8.6342
a 11181 2445 0.4075
a 11181 11180 15.1301
a 11182 11183 3.7735
a 11183 10938 20.0131
a 11183 11182 3.7735
a 11184 1143 15.853
a 11185 12246 5.1379
a 11185 10284 1.2406
a 11186 4828 9.5443
a 11187 2160 4.8881
a 11188 5715 2.1514
a 11188 11872 6.5174
a 11188 12565 7.5715
a 11189 3795 17.4241
a 11189 3907 11.2622
a 11189 8731 8.3714
a 11190 1046 2.2356
a 11190 7842 9.0252
a 11190 7841 8.2937
a 11191 11192 4.847
a 11192 12119 45.8952
a 11192 9685 10.2989
a 11192 11191 4.847
a 11193 2689 1.0483
a 11194 2688 1.175
a 11195 1017 34.9514
a 11196 12823 57.5877
a 11196 10676 4.3358
a 11196 12822 5.3971
a 11197 9362 5.035
a 11198 2075 15.8191
a 11199 13320 25.2806
a 11200 8659 9.3586
a 11200 8526 5.3388
a 11200 4264 30.5741
a 11201 5605 10.5048
a 11202 8802 21.726
a 11203 8065 5.701
a 11204 9742 0.5256
a 11204 8500 16.0135
a 11204 9738 91.2222
a 11205 12442 7.7126
a 11205 9861 0.6293
a 11206 12442 2.136
a 11206 9861 7.6874
a 11207 11208 5.3539
a 11207 11209 1.8245
a 11208 3568 8.3232
a 11208 11209 4.014
a 11209 492 5.9112
a 11210 8018 259.3968
a 11210 759 9.2261
a 11211 5761 3.0802
a 11211 5760 9.2938
a 11211 5768 15.9091
a 11211 5773 3.6526
a 11212 9017 10.5048
a 11212 11272 11.5574
a 11212 11213 134.346
a 11213 11240 2.4394
a 11213 11502 10.008
a 11213 11212 963.6408
a 11214 927 6.5023
a 11214 926 6.5246
a 11214 3551 10.8158
a 11214 3536 11.1737
a 11215 5453 0.4651
a 11216 9312 2.0527
a 11217 7051 104.4817
a 11217 7050 266.0563
a 11217 12645 38.5611
a 11218 13286 9.5918
a 11219 11219 14.0962
a 11219 11219 14.0962
a 11219 13563 1.3903
a 11220 3590 0.4068
a 11220 3588 5.3827
a 11220 3589 6.2143
a 11221 2688 7.5449
a 11222 5425 47.6688
a 11223 3611 2.011
a 11223 4805 2.5445
a 11223 12206 75.7981
a 11224 3331 0.4608
a 11224 3336 24.9127
a 11225 10682 1.6279
a 11225 10681 1.4508
a 11225 11227 1.4335
a 11226 10687 1.2614
a 11226 11227 3.551
a 11226 11229 3.042
a 11227 11225 14.1939
a 11227 10685 3.155
a 11227 11226 3.551
a 11228 10685 0.7502
a 11229 10687 2.1614
a 11229 11226 3.042
a 11229 10689 17.1811
a 11230 11556 3.2544
a 11230 9292 211.9997
a 11230 8122 18.5422
a 11231 567 24.9523
a 11232 826 12.019
a 11233 10262 19.5314
a 11233 2808 0.4723
a 11234 6379 6.9293
a 11235 5232 9.5954
a 11235 10983 7.7148
a 11235 12660 3.4855
a 11236 6598 20.7727
a 11236 6696 6.0034
a 11236 6706 7.619
a 11237 4823 9.6509
a 11238 4967 4.2718
a 11238 10580 1.5473
a 11238 10571 65.0646
a 11238 10570 26.4995
a 11239 7980 12.6986
a 11240 11213 2.4394
a 11241 5327 5.1084
a 11241 3546 4.6642
a 11241 5321 7.0085
a 11241 8773 4.7693
a 11242 11150 1.6668
a 11243 6750 1.3632
a 11243 9204 18.3823
a 11243 6749 4.5403
a 11244 11245 4.6325
a 11245 9053 1.5883
a 11245 4566 2.8289
a 11245 11244 21.3422
a 11247 11847 178.1034
a 11248 8701 8.9667
a 11249 11126 1.4443
a 11249 11250 1.3471
a 11249 11124 12.1054
a 11250 11126 1.5451
a 11250 11249 1.3471
a 11250 12079 5.143
a 11251 11125 18.0799
a 11252 10009 3.1306
a 11253 8060 3.857
a 11254 8061 0.643
a 11254 10992 27.2428
a 11254 9794 1.8202
a 11255 11545 2.4466
a 11255 12723 0.4442
a 11255 2175 2.0131
a 11256 3645 26.3383
a 11256 7711 7.7868
a 11257 12288 117.317
a 11258 11261 0.5522
a 11258 12107 12.0766
a 11259 11265 0.5429
a 11259 11262 13.613
a 11260 11264 0.5868
a 11260 3677 4.1292
a 11260 12106 1.7676
a 11261 11259 16.7892
a 11262 11266 0.5486
a 11262 11263 7.2374
a 11263 11267 0.5544
a 11263 11268 15.6722
a 11264 11260 0.5868
a 11264 10905 7.7184
a 11265 11258 0.5803
a 11266 11262 0.5486
a 11266 11265 13.0795
a 11267 11263 39.8532
a 11267 11266 7.609
a 11268 7092 5.3461
a 11268 3862 1.2074
a 11269 5867 12.703
a 11269 9107 15.0516
a 11269 5570 15.0415
a 11270 8540 7.9438
a 11271 12202 4.6508
a 11271 3586 9.1994
a 11271 10911 4.7326
a 11272 11212 11.5574
a 11272 12590 19.8691
a 11272 8180 48.1087
a 11272 5396 4.8334
a 11273 3903 11.9196
a 11273 7484 3.1932
a 11273 8376 4.9867
a 11274 10882 4.0205
a 11275 4826 1.8259
a 11275 11826 4.7938
a 11275 4830 5.347
a 11276 6620 0.6516
a 11277 11695 4.7318
a 11277 11398 22.4755
a 11277 11399 4.2019
a 11278 6589 9.5832
a 11278 6627 11.6482
a 11278 6691 2.9707
a 11279 8904 1.5372
a 11279 11279 12.204
a 11279 11279 12.204
a 11280 6213 0.4219
a 11281 10111 28.3399
a 11282 10470 5.8298
a 11282 5428 60.9633
a 11282 9482 14.2954
a 11283 2447 2.7562
a 11284 3563 0.6062
a 11285 9408 2.5265
a 11286 2553 0.7351
a 11287 2552 1.0102
a 11288 13098 0.1282
a 11288 10007 8.37
a 11289 12590 7.7141
a 11289 10958 0.5702
a 11290 11291 2.6604
a 11290 13405 110.8685
a 11291 2082 50.3978
a 11292 10363 0.7488
a 11292 9548 4.0126
a 11292 9547 8.9395
a 11293 1144 15.8816
a 11294 2662 5.3568
a 11294 2673 1.6481
a 11294 2686 2.1996
a 11295 3798 24.0408
a 11296 7567 5.49
a 11296 11321 1.7028
a 11297 11989 67.8629
a 11297 11302 18.9569
a 11298 10157 9.2102
a 11298 10155 6.2978
a 11299 816 9.2506
a 11300 12013 6.81
a 11300 8353 4.3366
a 11300 11301 5.1833
a 11302 12461 0.8546
a 11302 9655 3.2947
a 11303 3983 0.9414
a 11304 3920 7.3166
a 11305 2749 0.4961
a 11306 2746 0.3139
a 11307 12998 0.9281
a 11308 4069 1.8295
a 11309 286 0.7538
a 11310 1663 2.641
a 11311 9707 69.1295
a 11312 7755 27.5299
a 11313 4250 1.0375
a 11314 4102 0.4918
a 11315 9727 0.311
a 11316 5690 1.9397
a 11317 3202 119.66
a 11318 4733 9.4919
a 11319 6212 0.437
a 11320 6214 1.458
a 11321 10469 0.2822
a 11321 11296 1.728
a 11322 2796 2.8022
a 11323 10369 3.4747
a 11324 4377 0.581
a 11325 4183 1.1858
a 11326 4112 1.579
a 11327 4265 0.5314
a 11328 7914 0.8734
a 11329 3339 8.3426
a 11330 1221 1.2492
a 11330 9233 0.7214
a 11331 7389 0.8064
a 11332 11333 84.7453
a 11332 7800 1.607
a 11333 7800 1.8108
a 11333 405 8.6011
a 11334 9500 1.2766
a 11335 8800 1.5653
a 11336 11337 5.3597
a 11337 11340 4.1818
a 11337 11338 19.3385
a 11337 11336 5.3597
a 11338 11341 3.7519
a 11338 11382 3.8232
a 11338 11337 19.3385
a 11339 11341 244.7265
a 11339 11340 15.3907
a 11340 11337 4.1818
a 11340 11341 15.1214
a 11340 11339 15.3907
a 11341 11338 3.7519
a 11341 11340 15.1214
a 11341 11339 8.8495
a 11342 12152 4.274
a 11342 12445 25.7602
a 11343 12979 0.612
a 11344 4144 5.1862
a 11345 4144 1.0627
a 11346 4268 0.7106
a 11347 2516 8.9842
a 11348 10444 9.1025
a 11349 11350 13.8985
a 11350 9654 4.0277
a 11350 11349 4.2818
a 11350 9653 13.2742
a 11351 12120 2.3501
a 11351 7258 3.9974
a 11352 7652 1.147
a 11352 11353 1.6085
a 11353 2181 5.2718
a 11354 11065 2.8661
a 11354 11066 0.8935
a 11355 9110 0.4997
a 11356 10259 1.1758
a 11357 1352 11.6834
a 11357 1791 1.0008
a 11358 2018 43.3676
a 11358 13482 0.5818
a 11359 5682 4.5302
a 11359 10171 1.561
a 11359 10171 6.673
a 11360 1356 2.767
a 11360 1350 29.8644
a 11360 1175 47.5388
a 11361 2694 27.1021
a 11362 8699 9.3613
a 11362 2667 5.1178
a 11362 2697 6.3864
a 11363 2018 11.3473
a 11363 167 1.6034
a 11363 11364 10.8247
a 11364 11363 0.4464
a 11365 12642 4.6073
a 11366 5232 8.4046
a 11366 5211 3.0031
a 11366 11576 6.6953
a 11367 8314 4.8103
a 11367 3642 2.8843
a 11367 8586 0.3938
a 11368 11373 10.7129
a 11369 11370 2.4408
a 11370 11369 10.2835
a 11370 11371 6.6593
a 11370 11377 4.0644
a 11371 8526 78.3597
a 11371 11378 4.2854
a 11371 11370 6.6593
a 11372 11373 3.9168
a 11372 8527 10.6265
a 11372 13425 4.5619
a 11373 11372 3.9168
a 11373 11368 82.3349
a 11373 11728 53.9994
a 11373 11374 3.883
a 11374 11375 3.8347
a 11374 11727 7.8372
a 11374 12360 10.1815
a 11374 11373 3.883
a 11375 11374 3.8347
a 11375 11376 4.1414
a 11375 8524 1.8914
a 11375 11726 7.9279
a 11376 11375 4.1414
a 11376 12384 6.9638
a 11376 11377 3.6936
a 11377 11378 5.4036
a 11377 11376 3.6936
a 11377 11370 4.0644
a 11378 11371 4.2854
a 11378 8525 207.5023
a 11378 11377 5.4036
a 11379 800 4.7275
a 11379 798 5.4706
a 11379 11805 2.579
a 11380 816 51.1706
a 11380 823 22.3776
a 11380 817 664.0459
a 11381 3647 27.7819
a 11381 3815 1.9296
a 11382 11338 51.485
a 11383 10328 2.6402
a 11383 13590 4.6721
a 11383 3363 13.1688
a 11384 5898 27.9142
a 11384 11385 3.0406
a 11384 5897 5.1149
a 11385 11384 3.0406
a 11386 2278 1.4443
a 11386 2279 1.5466
a 11386 11387 2.9837
a 11387 11386 2.9837
a 11387 7908 5.7967
a 11387 7908 15.3126
a 11388 11389 2.9664
a 11388 7907 6.205
a 11388 7907 5.7982
a 11389 2259 4.6634
a 11389 11388 2.9664
a 11389 2246 13.2329
a 11390 3352 2.7158
a 11390 3353 5.5296
a 11390 3353 5.6873
a 11391 2256 2.929
a 11391 2272 6.7608
a 11391 2269 15.3402
a 11392 2251 0.9374
a 11392 2268 4.6692
a 11392 11393 2.9182
a 11393 11392 2.9182
a 11393 2290 5.3856
a 11393 2290 5.6419
a 11394 2769 3.0406
a 11395 2312 8.2721
a 11396 2313 5.5166
a 11397 130 52.6569
a 11397 30 28.8586
a 11397 13606 8.9561
a 11398 7614 8.5615
a 11398 2559 8.8963
a 11398 11277 22.4755
a 11399 11400 3.6569
a 11399 11688 2.9902
a 11399 11277 4.2019
a 11400 11695 3.2746
a 11400 11399 13.9169
a 11400 11401 6.0379
a 11401 11400 6.0379
a 11401 11104 57.8441
a 11401 11695 7.321
a 11402 6414 1.9879
a 11402 11403 8.527
a 11402 6464 1.8086
a 11403 6414 2.8073
a 11403 6873 9.7416
a 11403 11402 113.2986
a 11404 1184 16.2914
a 11404 1183 7.427
a 11404 1181 4.0471
a 11405 2298 1.0094
a 11405 13152 7.2792
a 11406 1654 1.0951
a 11406 7448 9.1591
a 11407 13365 12.0218
a 11407 11207 3.5338
a 11408 135 225.445
a 11409 1214 0.6682
a 11409 1215 0.9187
a 11410 1385 1.3111
a 11410 1388 12.3098
a 11410 1389 11.6842
a 11411 766 8.5421
a 11412 13488 2.6129
a 11412 10707 1.0901
a 11412 10704 4.6447
a 11413 10701 3.3696
a 11413 11414 2.3645
a 11413 10702 1.4645
a 11414 12083 1.1131
a 11414 11413 2.3645
a 11414 10702 3.2652
a 11415 12699 2.0706
a 11415 13338 0.5198
a 11415 12938 39.1127
a 11416 731 16.5442
a 11416 9237 6.493
a 11417 9063 7.583
a 11417 5290 27.5119
a 11417 9064 3.8938
a 11418 9903 1.3939
a 11418 9244 42.4316
a 11418 6808 5.1379
a 11419 5334 7.3951
a 11420 8184 0.4435
a 11420 12954 2.4552
a 11421 6885 3.1584
a 11421 11420 0.5386
a 11422 10608 6.8184
a 11422 5053 3.1522
a 11423 9153 8.1778
a 11424 10899 12.1608
a 11425 7454 2.111
a 11425 11426 10.176
a 11425 11454 4.387
a 11426 11425 3.4848
a 11427 11429 5.1725
a 11428 7268 0.8338
a 11428 9299 0.4457
a 11428 11429 6.0242
a 11429 11427 5.1725
a 11429 11430 3.3494
a 11429 11428 61.4469
a 11430 11429 3.3494
a 11431 9767 2.255
a 11432 11433 2.6064
a 11433 11017 0.7733
a 11433 7510 5.0926
a 11433 11432 2.6064
a 11434 10705 66.4003
a 11434 11440 3.937
a 11434 9836 4.5893
a 11435 11436 4.7052
a 11435 8409 43.6948
a 11435 4501 9.3773
a 11435 9395 23.3957
a 11436 4420 9.1195
a 11436 8783 70.5596
a 11436 11441 4.1911
a 11436 11435 4.7052
a 11437 11438 0.7344
a 11437 1221 10.4335
a 11438 11437 0.7344
a 11438 12731 3.2292
a 11439 6797 11.6374
a 11439 11440 6.1848
a 11440 11703 6.0235
a 11440 11439 6.1848
a 11440 11434 3.937
a 11441 9388 3.9125
a 11441 11436 11.5219
a 11441 4530 25.0517
a 11442 5840 3.191
a 11442 5839 206.5659
a 11442 11443 3.5028
a 11443 5834 3.0485
a 11443 5835 9.3751
a 11443 11442 3.5028
a 11444 8332 16.8724
a 11444 8325 8.8495
a 11444 9761 2.5812
a 11444 11655 2.2838
a 11445 9771 7.4095
a 11446 9921 31.0471
a 11446 11447 2.5913
a 11446 9913 142.0568
a 11447 9913 2.2104
a 11447 9914 1.2866
a 11447 11446 2.5913
a 11448 6804 1.8101
a 11448 10765 1.5905
a 11448 9247 3.9902
a 11449 8027 4.5223
a 11450 2742 6.372
a 11451 2461 5.4317
a 11451 1531 4.405
a 11452 5765 7.2821
a 11453 8573 24.6878
a 11453 10615 6.1337
a 11454 11425 49.2165
a 11455 7268 13.0003
a 11456 4436 12.8138
a 11456 4439 13.1314
a 11456 4555 6.1236
a 11457 8400 3.5244
a 11457 11458 2.1456
a 11457 8389 5.4842
a 11458 11729 2.1146
a 11458 11457 2.1456
a 11458 11459 4.0534
a 11458 6855 5.7564
a 11459 11458 1.2809
a 11459 8402 4.639
a 11459 11460 1.3896
a 11460 11459 5.9468
a 11460 11838 1.6841
a 11460 11729 4.7282
a 11461 2709 146.3603
a 11462 2794 4.4604
a 11462 13515 3.0895
a 11462 11463 27.7968
a 11463 11462 11.3612
a 11464 5835 2.4725
a 11464 5832 11.4703
a 11464 5839 0.6048
a 11465 5587 3.4682
a 11466 5456 10.4767
a 11467 6711 3.8455
a 11467 6389 6.9271
a 11467 11468 3.6194
a 11468 11467 3.6194
a 11469 6489 1.5646
a 11469 6728 693.3281
a 11469 6567 12.1745
a 11470 8326 119.8574
a 11471 7823 9.013
a 11472 11473 136.7983
a 11473 12093 4.3387
a 11473 3921 3.1982
a 11473 11472 4.9723
a 11474 7599 0.5918
a 11475 7601 0.6019
a 11476 7602 0.6941
a 11477 8668 0.4075
a 11478 11479 42.1249
a 11479 6326 9.6588
a 11479 9810 7.8667
a 11479 11478 4.5252
a 11480 5590 1.5732
a 11480 5719 1.6459
a 11480 11481 1.3399
a 11481 11480 1.3399
a 11481 7500 10.6351
a 11481 13586 6.6881
a 11482 8308 28.481
a 11483 12500 19.9145
a 11483 4086 10.6754
a 11483 3885 49.972
a 11484 840 5.9602
a 11484 841 9.9151
a 11484 11485 2.6863
a 11485 11484 2.6863
a 11486 11487 6.138
a 11487 8814 0.1382
a 11487 8808 3.852
a 11487 11486 6.138
a 11488 8648 2.3731
a 11489 3665 17.5342
a 11490 11492 1.6834
a 11491 11492 0.6667
a 11492 11490 1.6834
a 11492 11491 0.6667
a 11492 5875 1.9253
a 11493 7562 10.3946
a 11494 8134 4.572
a 11495 11496 6.0005
a 11496 11495 6.0005
a 11496 3356 1.872
a 11496 3355 89.3348
a 11497 1570 3.7404
a 11497 10230 1.8367
a 11498 11499 2.471
a 11499 7175 0.6768
a 11499 4197 2.1269
a 11499 11498 26.8985
a 11500 6025 1.5451
a 11500 6038 9.6487
a 11500 11559 11.7202
a 11501 6544 10.2859
a 11502 2075 22.2998
a 11502 11213 10.008
a 11502 12041 2.8282
a 11503 8699 10.6632
a 11504 11559 2.0383
a 11504 12620 0.6682
a 11504 11557 9.1267
a 11505 11167 1.5588
a 11505 11506 3.019
a 11505 9160 5.9076
a 11506 11505 3.019
a 11507 11508 0.5717
a 11508 161 4.9118
a 11508 125 7.501
a 11508 11507 0.5717
a 11509 11510 31.1133
a 11509 12382 5.3359
a 11510 11509 1.5214
a 11510 8572 6.5038
a 11511 11048 34.2083
a 11511 9017 0.7495
a 11511 8602 4.2502
a 11512 11513 2.628
a 11512 8602 3.5078
a 11512 11514 5.6966
a 11513 11512 2.628
a 11513 11514 3.0622
a 11513 8604 3.7735
a 11514 11513 3.0622
a 11514 8605 137.9963
a 11514 11512 5.6966
a 11515 11517 1.6128
a 11516 11517 1.3111
a 11517 11515 1.6128
a 11517 11516 1.3111
a 11517 8351 1.6574
a 11518 6471 19.8295
a 11518 6739 3.5626
a 11518 8487 13.2977
a 11519 11520 8.064
a 11520 11519 8.064
a 11520 7750 36.8803
a 11521 4128 10.1887
a 11522 11523 10.6178
a 11523 11522 10.6178
a 11523 7389 3.001
a 11523 10603 4.8312
a 11524 9523 1.7395
a 11524 11529 4.693
a 11524 9524 3.5028
a 11525 8625 3.6922
a 11525 8624 3.6137
a 11525 11526 4.0334
a 11526 11525 14.4976
a 11527 13099 10.7338
a 11528 8624 0.9324
a 11529 9522 3.2407
a 11529 10482 7.7213
a 11529 11524 4.693
a 11530 10009 5.2006
a 11531 6374 3.9492
a 11531 13263 2.6834
a 11532 11533 3.6767
a 11533 11532 0.8647
a 11533 8603 5.683
a 11533 11534 5.6174
a 11534 11533 5.6174
a 11535 468 4.0853
a 11535 13609 4.559
a 11535 13599 30.3772
a 11536 9014 3.0398
a 11536 13217 0.288
a 11536 8603 51.936
a 11537 11538 6.7529
a 11538 12612 5.904
a 11538 5990 5.0782
a 11538 11537 6.7529
a 11539 2117 8.1396
a 11539 11540 3.6662
a 11539 2110 17.8855
a 11539 11543 3.7152
a 11540 2915 4.8312
a 11540 2120 8.0402
a 11540 11539 39.5063
a 11541 2576 274.0528
a 11542 12018 3.9326
a 11543 2115 8.105
a 11543 8224 16.7652
a 11543 11539 3.7152
a 11544 8107 5.6844
a 11545 8417 2.4365
a 11545 11255 2.4466
a 11545 11155 4.8881
a 11546 12775 3.6122
a 11547 10433 7.6061
a 11548 13569 2.9527
a 11549 5294 3.2753
a 11549 5292 23.3301
a 11549 13569 2.1535
a 11550 11617 4.3092
a 11550 11671 32.955
a 11551 1789 8.1943
a 11551 1782 3.8894
a 11551 13091 0.4442
a 11552 3991 3.312
a 11552 12807 3.2321
a 11552 3627 1.6668
a 11553 7922 11.16
a 11554 6288 5.8529
a 11554 10357 8.8322
a 11554 6281 6.0091
a 11554 6289 7.2648
a 11555 11556 3.1298
a 11556 247 3.78
a 11556 11555 3.1298
a 11556 11230 3.2544
a 11557 11561 0.7243
a 11557 13548 1.7554
a 11557 11504 9.1267
a 11558 12881 1.4198
a 11558 13548 2.453
a 11558 11559 8.4002
a 11559 11504 2.0383
a 11559 11500 33.5356
a 11559 11558 8.4002
a 11560 13547 1.6862
a 11560 11563 2.0729
a 11560 11561 2.1542
a 11561 11557 19.0319
a 11561 11560 2.1542
a 11561 11563 2.6806
a 11562 13547 1.9318
a 11563 11560 2.0729
a 11563 12880 4.1866
a 11563 11561 2.6806
a 11564 2226 7.1734
a 11565 11566 4.0831
a 11566 11764 1.4681
a 11566 11766 5.0774
a 11566 11565 4.0831
a 11567 6189 7.7645
a 11567 6188 7.8192
a 11567 6180 4.1868
a 11568 7170 0.9137
a 11568 11569 9.4673
a 11568 6355 40.797
a 11569 11568 194.1026
a 11570 11571 4.7232
a 11571 10627 1.3262
a 11571 6684 2.0851
a 11571 11570 4.7232
a 11572 10386 0.8309
a 11572 11633 1.7294
a 11572 13227 1.9037
a 11573 6815 2.2298
a 11573 6842 2.2442
a 11573 11574 3.1543
a 11574 11573 3.1543
a 11574 11575 1.4285
a 11574 11579 3.0341
a 11575 11574 1.4285
a 11575 6842 36.8359
a 11575 11580 5.5872
a 11576 11366 6.6953
a 11577 11578 11.6107
a 11578 8837 35.7545
a 11578 11095 6.7514
a 11578 11577 11.6107
a 11579 8401 0.5126
a 11579 11580 1.7568
a 11579 11574 3.0341
a 11580 11579 1.7568
a 11580 1222 2.5884
a 11580 11575 5.5872
a 11581 11582 4.4575
a 11582 6202 2.1715
a 11582 6216 4.1609
a 11582 11581 4.4575
a 11583 5191 1.4926
a 11584 7159 11.3767
a 11585 6868 9.5854
a 11586 8917 11.1463
a 11587 1101 7.0999
a 11588 12768 1.4011
a 11588 11099 7.9992
a 11588 11589 3.6526
a 11589 8804 15.8573
a 11589 12163 18.7042
a 11589 11588 3.6526
a 11590 11824 9.6487
a 11590 9592 2.5733
a 11591 11592 14.302
a 11592 11591 4.6469
a 11592 8333 4.5151
a 11592 5428 6.629
a 11593 11594 0.2426
a 11594 11593 0.2426
a 11594 8692 0.5292
a 11594 8691 4.963
a 11595 11131 51.7123
a 11595 11597 1.967
a 11595 11596 40.253
a 11596 8442 8.9662
a 11596 8439 0.4766
a 11596 11595 3.9686
a 11597 9926 1.6834
a 11597 11595 1.967
a 11597 9927 5.6491
a 11598 8461 2.5006
a 11599 11600 27.3936
a 11600 11599 4.073
a 11600 9994 0.7942
a 11600 5143 1.8792
a 11601 10748 3.317
a 11602 11603 7.3008
a 11603 2663 15.1834
a 11603 11602 49.0171
a 11603 11604 5.0573
a 11604 8707 15.4325
a 11604 2672 6.0703
a 11604 11603 120.4762
a 11605 10583 6.5189
a 11606 9926 3.0233
a 11606 9260 7.9322
a 11606 6796 5.5303
a 11607 8574 1.5192
a 11607 11879 5.5867
a 11607 11877 8.0918
a 11607 11878 2.7835
a 11608 10565 4.8542
a 11608 10750 3.2558
a 11608 11879 4.5972
a 11609 11614 3.2825
a 11610 8439 3.3084
a 11611 11612 2.0822
a 11612 11876 4.8521
a 11612 11611 2.0822
a 11612 9423 2.8411
a 11613 10567 4.523
a 11614 11609 3.2825
a 11614 9918 4.7002
a 11614 9913 1.71
a 11615 7760 1.1002
a 11615 1218 6.2942
a 11616 12817 17.8006
a 11616 3226 7.8509
a 11616 3274 6.516
a 11617 10961 474.8927
a 11618 2768 5.7694
a 11619 13617 0.4198
a 11619 11618 3.8102
a 11619 9794 2.4149
a 11620 11621 3.0852
a 11621 2238 7.6378
a 11621 2239 4.1544
a 11621 11620 3.0852
a 11622 5291 10.8367
a 11623 6650 4.0673
a 11624 9116 2.525
a 11625 11626 2.0038
a 11626 11625 2.0038
a 11626 11627 1.2974
a 11626 9116 0.9266
a 11627 11626 1.2974
a 11628 10392 7.1028
a 11629 7360 0.193
a 11630 2963 18.8352
a 11630 3525 2.723
a 11631 8432 10.6073
a 11631 7757 2.0527
a 11632 148 25.2969
a 11632 9974 17.7134
a 11632 12124 10.1412
a 11633 11572 1.7294
a 11633 10387 4.0507
a 11633 6002 3.4481
a 11634 5475 11.2471
a 11635 5623 1.8367
a 11635 5644 2.6532
a 11635 11636 1.985
a 11636 11635 1.985
a 11637 5986 6.9941
a 11638 7898 2.2406
a 11639 11631 13.0074
a 11639 12714 3.0737
a 11640 9814 3.9089
a 11641 11642 1.7057
a 11642 3537 9.3708
a 11642 11103 1.6877
a 11642 11641 56.9535
a 11643 2415 2.5272
a 11643 2167 0.198
a 11643 12722 3.127
a 11644 11645 4.5396
a 11645 9815 3.811
a 11645 9814 0.6307
a 11645 11644 4.5396
a 11646 10618 0.391
a 11647 8881 3.1831
a 11648 11649 4.0111
a 11649 11648 4.0111
a 11649 3870 10.4854
a 11649 3812 2.1427
a 11650 11651 108.1289
a 11651 5728 3.5057
a 11651 5273 3.7761
a 11651 11650 9.1483
a 11652 3330 0.679
a 11652 11653 5.0674
a 11653 11652 5.0674
a 11654 12638 1.3522
a 11654 12931 3.9053
a 11654 12639 17.1234
a 11655 12638 32.3046
a 11655 11444 2.2838
a 11655 12639 3.9067
a 11656 6488 3.1291
a 11656 10670 3.2299
a 11656 11914 37.3724
a 11657 6549 6.0163
a 11658 654 10.5293
a 11658 11 9.7078
a 11658 11825 6.8278
a 11659 10384 1.656
a 11659 5995 12.4207
a 11659 11662 6.0818
a 11660 11661 4.4186
a 11661 3700 3.6612
a 11661 2579 8.604
a 11661 11660 4.4186
a 11662 11659 6.0818
a 11663 11847 4.603
a 11663 13185 1.3478
a 11663 11664 4.8895
a 11664 11663 4.8895
a 11665 8911 4.6289
a 11666 8704 41.1041
a 11667 8769 22.6296
a 11667 5343 6.3994
a 11667 12787 7.3951
a 11668 4345 2.2493
a 11668 13000 2.6388
a 11668 11669 5.6614
a 11669 11668 5.6614
a 11670 4345 7.1244
a 11671 8410 6.2705
a 11672 11671 3.767
a 11672 11617 4.6246
a 11673 8497 5.544
a 11674 13187 2.2782
a 11674 2307 14.0378
a 11674 2291 20.0124
a 11675 11676 7.0085
a 11676 232 2.8253
a 11676 11675 7.0085
a 11676 248 5.7139
a 11677 9849 9.8813
a 11678 11679 8.676
a 11679 6857 1.386
a 11679 1223 5.1293
a 11679 11678 8.676
a 11680 9045 10.6798
a 11681 10937 1.7122
a 11682 2298 0.1577
a 11683 11684 4.0111
a 11684 3226 7.3282
a 11684 3283 4.4525
a 11684 11683 4.0111
a 11685 3231 6.2942
a 11685 3268 7.3757
a 11685 11686 6.2194
a 11686 3255 8.9518
a 11686 3305 13.1069
a 11686 11685 6.2194
a 11687 6934 6.1704
a 11688 11399 2.9902
a 11689 11738 5.7449
a 11689 4953 7.5708
a 11689 11690 2.5085
a 11689 11770 376.4726
a 11690 11689 2.5085
a 11691 2295 1.4357
a 11692 7445 2.6755
a 11693 8001 2.9556
a 11693 7999 79.3877
a 11693 11926 1.6243
a 11694 4832 80.5649
a 11695 11277 4.7318
a 11695 11400 3.2746
a 11695 11401 7.321
a 11696 692 0.5904
a 11696 693 2.8519
a 11696 11697 4.5122
a 11697 11696 4.5122
a 11698 693 0.5407
a 11698 2560 3.4416
a 11698 11699 3.6043
a 11699 11698 3.6043
a 11700 6769 3.8081
a 11701 540 8.1547
a 11701 1319 2.7
a 11701 7511 4.1825
a 11702 9916 1.0879
a 11703 6799 1.3882
a 11703 9920 3.8203
a 11703 11440 6.0235
a 11704 11705 150.2075
a 11705 10864 1.7395
a 11705 10863 2.7173
a 11705 11704 3.6994
a 11706 8152 1.9548
a 11707 5149 1.0476
a 11707 11708 1.5307
a 11707 13101 5.4667
a 11708 11707 1.5307
a 11708 13100 0.5537
a 11708 5159 3.4654
a 11709 5118 4.631
a 11709 10548 192.6142
a 11709 5115 3.7217
a 11710 11711 0.9144
a 11711 12085 0.9619
a 11711 12086 5.4526
a 11711 11710 0.9144
a 11712 7359 11.2622
a 11713 13222 0.2758
a 11713 3654 9.0763
a 11714 2888 7.5103
a 11714 11715 2.3134
a 11714 3985 6.3252
a 11715 9669 10.9159
a 11715 3770 10.6574
a 11715 11714 2.3134
a 11716 6463 68.0389
a 11716 10548 4.6706
a 11716 12687 3.2652
a 11717 6862 1.435
a 11717 11718 10.3879
a 11717 8982 4.0018
a 11718 8983 1.4371
a 11718 8982 1.3392
a 11718 11717 2.6431
a 11718 11719 3.5122
a 11719 8984 1.4414
a 11719 11718 3.5122
a 11719 8982 4.8629
a 11720 12792 1.1254
a 11720 11909 2.7722
a 11720 9341 6.6168
a 11721 11736 29.1236
a 11721 11722 3.3948
a 11721 3876 8.4708
a 11722 11721 3.3948
a 11723 11732 6.1178
a 11724 5115 1.6092
a 11725 11730 4.5727
a 11725 9266 9.8302
a 11725 6777 59.621
a 11726 11727 11.0776
a 11726 11375 7.9279
a 11726 12384 4.9471
a 11727 11726 3.9132
a 11727 11374 7.8372
a 11727 11728 3.9233
a 11728 13426 124.9706
a 11728 11373 7.7472
a 11728 11727 14.0174
a 11729 11458 2.1146
a 11729 8400 3.9326
a 11729 11460 4.7282
a 11730 11901 3.7362
a 11730 11899 1.7251
a 11730 11725 4.5727
a 11731 11901 2.1679
a 11732 7656 2.2277
a 11732 7657 5.711
a 11732 11723 31.6289
a 11733 7951 6.3137
a 11734 180 4.2394
a 11735 13540 0.3074
a 11735 8781 3.8167
a 11735 8772 67.5588
a 11736 11721 1.9843
a 11736 11737 2.9722
a 11736 3795 209.8068
a 11737 11736 2.9722
a 11738 11689 5.7449
a 11739 834 18.3874
a 11739 4809 7.0949
a 11739 12756 2.8231
a 11740 182 37.174
a 11740 8015 1.5415
a 11740 11741 3.5878
a 11741 11740 3.5878
a 11742 2780 2.5308
a 11743 9335 3.5842
a 11743 11744 2.3141
a 11743 8268 2.9038
a 11744 9334 8.3304
a 11744 11743 2.3141
a 11744 11745 9.6273
a 11745 11748 6.9178
a 11745 11744 2.9441
a 11745 11746 3.8232
a 11746 8268 3.0766
a 11746 11745 3.8232
a 11746 11747 2.8706
a 11747 11749 0.3298
a 11747 11746 2.8706
a 11747 8261 7.7933
a 11748 11745 2.4559
a 11749 11747 18.9737
a 11749 8269 3.8923
a 11749 8271 1.5703
a 11750 11921 15.141
a 11751 6572 0.8316
a 11751 6564 4.1724
a 11751 11752 126.399
a 11752 6443 6.6485
a 11752 11751 2.2903
a 11753 11761 5.1667
a 11754 8404 0.6869
a 11754 11755 2.3609
a 11754 6848 4.6706
a 11755 11754 2.3609
a 11756 3609 19.0814
a 11757 11763 3.137
a 11757 11763 1686.0535
a 11757 8810 6.5268
a 11758 5353 5.1156
a 11759 8773 8.1994
a 11760 10646 420.7425
a 11761 11332 39.0744
a 11761 11753 5.1667
a 11762 3594 13.0313
a 11763 11757 29.475
a 11763 11757 23.382
a 11763 11764 6.1193
a 11764 11763 6.1193
a 11764 8810 3.3394
a 11764 11566 1.4681
a 11765 13540 21.7094
a 11766 11566 5.0774
a 11767 3596 1.1837
a 11768 7609 7.4477
a 11769 5992 15.0674
a 11770 10755 1.6812
a 11770 10754 2.6345
a 11770 11689 5.2762
a 11771 11772 2.8613
a 11772 11771 2.8613
a 11772 2724 4.5554
a 11772 3221 11.2687
a 11772 2723 6.2755
a 11773 5736 3.3314
a 11774 3219 2.646
a 11775 5938 3.8945
a 11775 5937 13.7678
a 11775 11948 3.4697
a 11776 4244 997.6031
a 11777 5293 393.9242
a 11778 3368 8.5831
a 11779 2318 0.5594
a 11780 11781 10.0112
a 11781 11780 3.5359
a 11781 5020 5.5105
a 11781 5036 9.1246
a 11782 6616 1.8202
a 11782 10114 1.6171
a 11782 9313 5.7226
a 11783 12125 0.7337
a 11784 5509 4.9536
a 11785 13583 2.1053
a 11786 11787 11.4044
a 11787 6684 0.9677
a 11787 9140 1.3831
a 11787 11786 3.3048
a 11788 7612 9.2327
a 11789 11790 0.445
a 11790 4192 3.7433
a 11790 11789 0.445
a 11790 7862 3.6072
a 11791 9137 7.2986
a 11792 10317 10.4134
a 11793 12037 9.1591
a 11794 8375 9.5832
a 11795 11796 2.7151
a 11796 11795 2.7151
a 11796 4442 5.4511
a 11796 4489 3.623
a 11797 11798 2.9023
a 11798 6758 69.0931
a 11798 12711 5.31
a 11798 11797 2.9023
a 11799 11800 4.6181
a 11800 7862 4.7981
a 11800 11799 4.6181
a 11800 12369 0.4284
a 11800 7200 4.6872
a 11801 505 12.3133
a 11802 5246 35.3512
a 11803 6980 0.6926
a 11803 6979 6.9919
a 11804 4624 1.4674
a 11805 11379 2.579
a 11806 6871 34.0813
a 11807 9992 0.6948
a 11807 10276 16.7119
a 11808 5969 2.5387
a 11809 11810 3.0384
a 11810 3189 2.7007
a 11810 3191 2.219
a 11810 11809 3.0384
a 11811 2636 1.7316
a 11812 11813 3.0002
a 11812 12019 3.4279
a 11812 12110 17.0622
a 11813 11812 3.0002
a 11814 6188 115.5123
a 11815 807 7.2397
a 11815 805 7.3109
a 11816 805 1.4004
a 11816 11818 3.4546
a 11817 11816 1.4954
a 11817 806 26.5306
a 11818 11816 3.4546
a 11818 11819 3.6589
a 11818 792 1.2485
a 11819 792 1.2816
a 11819 794 3.1248
a 11820 11821 2.8469
a 11821 797 5.3791
a 11821 791 4.3661
a 11821 11820 2.8469
a 11822 11823 4.1314
a 11823 4824 5.4862
a 11823 11822 4.1314
a 11823 4819 5.2812
a 11824 11590 9.6487
a 11825 11658 6.8278
a 11826 11275 4.7938
a 11827 11828 11.7756
a 11828 778 13.4611
a 11828 9122 11.2522
a 11828 11827 62.5716
a 11829 11830 2.25
a 11830 4830 100.6797
a 11830 11829 2.25
a 11830 4831 90.2516
a 11831 11124 4.3553
a 11831 11123 6.9962
a 11831 11832 7.8005
a 11832 11831 7.8005
a 11833 11834 515.6491
a 11834 9593 3.0586
a 11834 9592 6.9761
a 11834 11833 8.5709
a 11835 3603 1.8094
a 11835 8773 9.3658
a 11835 11836 4.1314
a 11836 8774 2.2327
a 11836 8781 704.1847
a 11836 11835 4.1314
a 11837 9320 4.284
a 11838 8402 4.4906
a 11838 8394 5.5757
a 11838 11460 1.6841
a 11839 6842 3.1421
a 11839 11840 1.4249
a 11839 9894 3.6151
a 11840 9895 4.3546
a 11840 11839 1.4249
a 11840 10776 3.1889
a 11841 6844 1.1002
a 11841 9895 1.404
a 11841 9899 8.4982
a 11842 8445 2.1931
a 11843 6563 64.6506
a 11843 6492 6.6564
a 11843 6530 5.3964
a 11844 9585 3.3948
a 11844 11845 1.9793
a 11844 9590 8.563
a 11845 11844 1.9793
a 11846 9593 30.4193
a 11847 11247 2.9297
a 11847 11663 4.603
a 11847 8705 1.435
a 11848 8701 2.9959
a 11848 12591 65.0403
a 11849 11850 2.8836
a 11850 3759 4.8744
a 11850 4056 3.3458
a 11850 11849 2.8836
a 11851 5633 8.3866
a 11852 10209 58.8997
a 11852 9334 4.7117
a 11852 9336 2.5128
a 11853 5859 3.1226
a 11853 5868 14.4861
a 11853 12336 19.1318
a 11854 6932 9.1123
a 11855 5864 4.8564
a 11855 11871 21.1787
a 11855 5859 6.2172
a 11856 9784 1.7914
a 11856 4236 13.8485
a 11856 10432 22.0903
a 11857 10340 59.8792
a 11858 6359 3.2551
a 11859 12149 0.6062
a 11859 3020 7.0517
a 11859 12086 3.541
a 11860 11861 4.9961
a 11861 541 3.8542
a 11861 11865 4.1681
a 11861 11860 52.7813
a 11862 5814 11.5258
a 11863 10855 101.179
a 11864 10844 18.3665
a 11865 11861 13.7023
a 11865 12086 3.8945
a 11865 1243 5.1278
a 11866 12 0.9
a 11866 632 4.3142
a 11866 261 16.6183
a 11867 16 0.486
a 11867 678 3.5006
a 11868 11867 0.6739
a 11868 7836 6.8789
a 11869 1077 0.2419
a 11869 1076 16.8242
a 11869 2926 17.2483
a 11870 2435 14.1401
a 11870 9802 9.059
a 11870 1079 9.1303
a 11871 5666 3.0895
a 11871 11855 2.6748
a 11871 5863 15.3965
a 11872 12338 0.2966
a 11872 11188 6.5174
a 11872 5525 1.759
a 11873 11874 11.3292
a 11874 11873 11.3292
a 11874 12572 14.7953
a 11874 1695 3.3595
a 11875 5762 0.157
a 11875 9007 4.788
a 11875 10456 7.1719
a 11876 11612 4.8521
a 11876 10532 5.7226
a 11876 10527 6.246
a 11877 3122 1.1527
a 11877 10751 5.2877
a 11877 11607 1.8079
a 11878 10585 1.7921
a 11878 11607 2.7835
a 11878 11879 31.8609
a 11879 11607 1.6042
a 11879 11608 4.5972
a 11879 11878 3.3538
a 11880 987 13.6498
a 11880 987 101.1822
a 11880 968 0.1598
a 11881 2023 9.2261
a 11881 2030 0.3247
a 11881 2031 7.3865
a 11882 899 6.8976
a 11882 8617 22.1767
a 11883 7963 5.4374
a 11884 3249 18.3694
a 11885 10915 55.0522
a 11886 7631 0.8438
a 11887 6665 5.5166
a 11888 1006 17.4249
a 11888 979 0.8827
a 11888 976 225.1556
a 11889 964 3.4027
a 11889 7186 5.112
a 11889 9619 109.362
a 11889 8754 2.2939
a 11890 4027 2.0498
a 11891 7962 1.3795
a 11892 10409 1.9757
a 11892 10408 2.3148
a 11892 11893 5.6462
a 11893 11127 0.4824
a 11893 12864 0.5558
a 11893 11892 68.978
a 11894 7123 1.2089
a 11894 7121 20.4967
a 11894 11895 1.2348
a 11895 7138 55.5639
a 11895 11894 50.6803
a 11895 7137 2.1586
a 11896 6406 85.5056
a 11897 3266 0.6782
a 11898 5655 14.7509
a 11899 11900 1.0836
a 11899 11902 5.1034
a 11899 11730 1.7251
a 11900 11899 1.0836
a 11900 11901 52.666
a 11900 11902 2.0333
a 11901 11730 1.0642
a 11901 11731 19.569
a 11901 11900 8.4569
a 11902 11903 1.0372
a 11902 11899 5.1034
a 11902 11900 2.0333
a 11903 11902 0.2923
a 11904 9266 2.2097
a 11905 3259 0.9814
a 11905 3264 5.4043
a 11905 3306 6.7594
a 11906 11907 3.7282
a 11907 12052 1.6135
a 11907 7682 1.0829
a 11907 11906 3.7282
a 11908 11909 4.4827
a 11909 11720 0.617
a 11909 11911 1.5977
a 11909 11908 4.4827
a 11910 11911 4.7362
a 11911 11909 1.5977
a 11911 11910 4.7362
a 11911 9207 1.543
a 11912 8653 7.3885
a 11913 11914 8.9438
a 11914 11913 8.9438
a 11914 10670 6.6377
a 11914 11656 4.5396
a 11915 10568 5.5195
a 11916 11917 0.9338
a 11916 10313 250.0261
a 11917 3926 3.0535
a 11917 11916 28.7696
a 11918 10582 5.4986
a 11919 8168 28.9
a 11920 9149 4.8758
a 11920 12822 4.1674
a 11920 12823 7.1294
a 11921 6427 5.3863
a 11921 9277 3.5258
a 11921 9279 6.9926
a 11921 11750 5.5814
a 11922 9363 5.5966
a 11923 11171 2.0729
a 11924 8006 27.4253
a 11925 6188 3.96
a 11926 11693 1.6243
a 11927 10907 12.0874
a 11927 7093 1.6085
a 11928 8003 7.0553
a 11929 8002 2.9002
a 11929 10495 9.3953
a 11929 8004 35.3843
a 11930 9427 4.8124
a 11931 11932 4.6922
a 11931 7785 11.4984
a 11931 10485 11.533
a 11932 11931 4.6922
a 11932 11933 2.8159
a 11932 7790 8.5558
a 11933 7803 3.8585
a 11933 7785 5.2726
a 11933 11932 2.8159
a 11934 7781 3.3329
a 11935 4521 4.0716
a 11936 11937 0.702
a 11936 252 5.5814
a 11937 7838 9.2009
a 11937 11936 0.702
a 11938 3008 113.4142
a 11938 1075 5.2445
a 11938 8677 17.5471
a 11939 6152 3.6598
a 11939 11974 35.38
a 11939 11940 44.498
a 11940 6152 3.173
a 11940 6154 7.3987
a 11940 11939 5.6865
a 11941 1140 3.6
a 11942 6230 2.7518
a 11943 6229 2.4811
a 11944 11945 1.5026
a 11944 8249 2.9506
a 11944 10346 11.16
a 11945 11944 1.5026
a 11945 8249 3.091
a 11945 10345 7.0286
a 11946 5816 0.9626
a 11946 4237 3.132
a 11947 8282 1.841
a 11947 8281 3.4798
a 11947 10396 4.7002
a 11948 11775 8.8207
a 11949 2400 1.2715
a 11949 3075 1.8259
a 11949 2399 6.0955
a 11950 11081 53.4056
a 11950 8379 2.8613
a 11951 5142 2.731
a 11951 12683 10.4881
a 11951 12011 1.7849
a 11952 12449 0.4687
a 11952 12219 28.7978
a 11953 269 3.7709
a 11954 1237 0.0986
a 11954 7544 14.5836
a 11954 7543 9.6926
a 11955 5109 0.355
a 11956 4720 0.635
a 11957 150 1.1578
a 11958 11081 1.3673
a 11958 11082 1.4486
a 11959 13135 60.3031
a 11959 13134 0.6574
a 11960 2804 0.9511
a 11962 5154 0.9634
a 11963 6171 0.9022
a 11964 3138 1.2658
a 11964 7259 1.4868
a 11965 12219 3.3206
a 11965 7260 4.8139
a 11966 7260 0.8906
a 11966 11965 5.0342
a 11967 2678 8.2123
a 11968 3735 8.1907
a 11969 11970 4.3798
a 11970 4090 3.762
a 11970 11969 4.3798
a 11970 7404 10.1657
a 11971 2612 3.8513
a 11972 147 0.6055
a 11972 7613 7.7213
a 11972 88 18.3434
a 11973 425 2.2378
a 11974 11939 2.8685
a 11974 6155 9.707
a 11974 6155 8.4442
a 11975 9807 2.4221
a 11975 12286 19.7122
a 11975 10248 15.7399
a 11976 2591 36.0706
a 11976 2593 0.7877
a 11976 2600 5.688
a 11977 10275 22.2106
a 11977 13397 392.407
a 11978 13006 3.9005
a 11979 9712 39.0031
a 11980 9663 0.769
a 11980 11042 201.2158
a 11981 6005 3.8599
a 11982 478 0.1505
a 11983 3635 6.7298
a 11983 2712 16.956
a 11983 2713 7.6176
a 11984 13296 3.9974
a 11985 3187 5.8982
a 11985 3182 13.4827
a 11985 9498 17.0703
a 11986 10799 0.6826
a 11987 10991 0.7949
a 11987 8186 1.9469
a 11988 6953 3.5669
a 11988 11979 16.4743
a 11989 11988 6.259
a 11990 3277 3.6886
a 11991 4111 8.2519
a 11992 5630 14.4144
a 11993 10462 1.7381
a 11994 3717 300.1685
a 11995 4533 0.5342
a 11996 7813 40.6972
a 11996 7930 17.3664
a 11996 9094 5.6658
a 11997 11998 1.7208
a 11998 11997 14.18
a 11998 10923 4.626
a 11998 10922 69.5736
a 11999 6787 1.4494
a 11999 6785 0.3247
a 11999 6786 6.7997
a 12000 8270 0.2275
a 12001 4310 1.818
a 12002 12004 0.6516
a 12002 4443 265.1217
a 12003 12002 0.8114
a 12003 12004 0.6494
a 12004 10719 28.606
a 12004 4551 16.5974
a 12005 7387 8.1346
a 12006 8799 38.2832
a 12007 8704 1.7532
a 12008 4945 1.5127
a 12008 4941 12.8016
a 12008 10500 5.2934
a 12009 7684 11.1564
a 12009 9883 2.6028
a 12010 7925 6.5398
a 12011 11951 1.7849
a 12012 1279 5.2013
a 12013 11300 0.3146
a 12014 3074 1.2038
a 12015 8705 2.0995
a 12016 4075 3.883
a 12016 4047 9.0151
a 12016 4047 10.4717
a 12017 999 2.2846
a 12018 6005 7.2821
a 12018 5991 22.3351
a 12018 11542 3.9326
a 12019 12599 2.1593
a 12019 11812 3.4279
a 12019 8824 7.3274
a 12020 8869 8.2948
a 12021 7178 2.286
a 12022 12023 5.3287
a 12023 2187 3.6907
a 12023 2195 6.3936
a 12023 12022 5.3287
a 12024 5663 4.4424
a 12025 6850 3.6922
a 12026 2031 6.0206
a 12027 9589 6.3778
a 12028 10625 8.8718
a 12029 9809 3.1176
a 12029 12030 2.9462
a 12029 9810 5.0098
a 12030 12029 14.7028
a 12031 6396 41.8297
a 12032 3869 7.0898
a 12033 2006 6.5966
a 12034 827 2.0131
a 12035 7199 1.9894
a 12036 4037 11.6186
a 12037 10317 1.71
a 12037 3363 2.3465
a 12037 11793 105.6986
a 12038 2402 1.1477
a 12038 2403 3.2141
a 12038 12039 5.4641
a 12039 9105 6.9178
a 12039 6880 9.6214
a 12039 12038 5.4641
a 12040 3407 4.626
a 12040 3411 10.9915
a 12040 3413 3.9701
a 12041 11502 2.8282
a 12042 6304 27.2247
a 12043 6458 9.7553
a 12044 9075 31.0639
a 12045 7462 7.3793
a 12046 7632 4.7129
a 12046 4629 7.285
a 12047 12236 2.5171
a 12047 8608 2.4502
a 12047 12237 5.0458
a 12048 6927 1.2442
a 12049 8462 6.2028
a 12050 12113 0.4853
a 12050 2685 12.6785
a 12050 4017 15.5462
a 12051 12052 16.7423
a 12052 12051 4.243
a 12052 9196 4.1357
a 12052 11907 1.6135
a 12054 3660 0.5126
a 12055 4017 0.7294
a 12056 3891 1.525
a 12057 3818 0.815
a 12058 3878 11.219
a 12058 4067 9.7524
a 12058 3739 387.4162
a 12059 12060 0.8539
a 12059 12561 0.1843
a 12060 12061 0.7006
a 12060 12429 91.0498
a 12061 9668 14.4223
a 12062 8362 1.7474
a 12062 13242 0.5033
a 12063 12920 1.1081
a 12064 4846 0.481
a 12064 12065 2.6244
a 12065 4905 33.876
a 12065 12064 2.6086
a 12066 864 9.6883
a 12067 7419 2.3818
a 12067 12066 1.0469
a 12068 6790 5.4922
a 12069 3524 2.2598
a 12070 6400 3.0946
a 12071 2473 4.6879
a 12071 2477 1.0318
a 12072 3960 3.6749
a 12072 8786 1.9951
a 12073 11173 67.7023
a 12074 12077 16.0229
a 12074 55 6.552
a 12075 1220 11.6906
a 12076 9679 4.1242
a 12076 12076 19.0555
a 12076 12076 19.0555
a 12077 4891 1.9793
a 12077 12074 16.0229
a 12077 9979 2.3227
a 12078 6841 1.0375
a 12078 8389 4.9219
a 12078 9070 6.8926
a 12079 11250 5.143
a 12080 8255 8.6141
a 12081 7790 2.047
a 12081 10507 8.5543
a 12082 13197 0.4601
a 12082 4006 40.1386
a 12082 13198 3.559
a 12083 11414 1.1131
a 12084 3850 3.4178
a 12084 10310 186.1999
a 12084 12648 5.7197
a 12085 11711 0.9619
a 12086 11865 12.0784
a 12086 11859 3.541
a 12086 11711 5.4526
a 12087 4490 20.1305
a 12087 4356 12.1997
a 12088 3830 4.6094
a 12088 13506 4.9054
a 12088 7064 5.6894
a 12089 2733 0.7589
a 12090 6515 0.9893
a 12091 6375 2.5351
a 12092 2369 22.1573
a 12093 11473 4.3387
a 12094 871 5.0062
a 12094 40 6.5866
a 12094 7610 14.4259
a 12094 2186 19.697
a 12095 8564 49.5564
a 12096 12852 0.3989
a 12096 8109 0.1634
a 12096 12108 0.8107
a 12097 9303 1.0044
a 12098 8529 35.887
a 12099 4455 1.6762
a 12100 2655 3.0024
a 12101 7211 1.6538
a 12102 4309 3.2522
a 12102 10281 1.9058
a 12103 6841 6.6622
a 12103 12078 7.2094
a 12104 9081 10.2038
a 12105 8480 2.0722
a 12106 11261 12.2026
a 12107 12106 0.6322
a 12107 11264 1.7395
a 12109 1881 16.6486
a 12110 11812 1.5545
a 12111 12112 1.2118
a 12111 2184 9.5825
a 12112 12111 1.2118
a 12112 2750 16.4419
a 12113 12050 0.4853
a 12114 3750 10.5379
a 12115 3870 0.3917
a 12116 6760 1.7842
a 12117 1992 12.7908
a 12118 12119 5.4425
a 12119 7307 1.4702
a 12119 11192 1.8943
a 12119 12118 5.4425
a 12120 12157 0.9374
a 12120 7258 3.245
a 12121 12951 0.6264
a 12121 12304 0.5033
a 12121 12304 201.4635
a 12122 13330 1.2276
a 12122 12143 3.888
a 12122 12124 14.4562
a 12123 12143 12.0257
a 12123 12144 1.2463
a 12123 12304 4.9291
a 12124 11632 10.1412
a 12124 12122 14.4562
a 12124 4978 260.9545
a 12125 11783 0.7337
a 12125 1749 15.6262
a 12126 36 0.8834
a 12126 749 40.8919
a 12127 3615 87.9317
a 12128 3839 2.0131
a 12129 8930 3.3458
a 12129 12131 5.0105
a 12130 263 0.9245
a 12130 1261 4.4323
a 12131 263 5.0015
a 12131 12130 1.2866
a 12132 5322 6.8659
a 12132 5355 7.884
a 12133 2443 0.648
a 12133 7527 8.0856
a 12134 12133 0.432
a 12134 11177 0.7675
a 12135 1253 5.8644
a 12136 12135 0.7632
a 12136 13042 0.4954
a 12137 13005 0.8633
a 12138 8235 5.9378
a 12139 12140 5.8716
a 12140 9626 10.9181
a 12140 9629 2.5913
a 12140 12139 5.8716
a 12141 9089 1.8554
a 12141 7812 3.1918
a 12141 9088 11.8202
a 12142 12143 1.1117
a 12143 12123 0.4522
a 12143 12122 3.888
a 12145 7422 9.7942
a 12146 8963 1.4767
a 12146 12145 1.7518
a 12147 7917 20.9512
a 12148 553 6.899
a 12149 11859 0.6062
a 12149 11026 142.3837
a 12151 7960 0.7884
a 12152 11342 4.1448
a 12152 11336 0.931
a 12153 2787 0.9022
a 12154 7253 5.089
a 12155 1106 1.5667
a 12155 1385 12.006
a 12155 1435 54.1264
a 12156 4975 3.2832
a 12157 4960 18.863
a 12158 6599 1.5807
a 12159 8673 0.7452
a 12160 11033 0.7632
a 12160 11029 6.3
a 12161 6731 3.6394
a 12161 6526 17.483
a 12161 6683 176.4539
a 12162 10684 4.4446
a 12163 11589 18.7042
a 12163 9700 15.3835
a 12164 7932 0.527
a 12165 9825 0.6638
a 12166 2002 0.8842
a 12166 9378 2.0988
a 12167 9673 1.1542
a 12168 6966 17.2329
a 12169 1063 3.078
a 12169 1060 7.2482
a 12169 1058 20.0498
a 12170 2718 345.3506
a 12171 12173 3.1608
a 12172 12173 1.7892
a 12173 12171 3.1608
a 12173 12172 1.7892
a 12173 5341 2.1427
a 12175 5715 44.0263
a 12176 12882 0.4939
a 12176 6981 6.6679
a 12177 8792 2.0563
a 12177 12178 20.9976
a 12177 8210 3.1716
a 12178 12177 2.1002
a 12179 9759 0.4637
a 12179 13614 1.0145
a 12179 9342 9.0612
a 12180 10370 8.617
a 12181 10173 1.9109
a 12182 6311 3.3422
a 12184 7935 20.1355
a 12185 5575 1.5293
a 12185 5639 174.8531
a 12185 7860 1.1376
a 12186 4267 0.7495
a 12187 7906 2.8591
a 12188 9718 0.4363
a 12189 3272 3.0322
a 12190 13283 2.3638
a 12191 5851 5.0998
a 12192 5745 6.8772
a 12193 5648 2.9218
a 12194 8626 14.4886
a 12194 12513 0.9979
a 12195 7441 3.2429
a 12195 7448 1.1117
a 12196 12774 0.4097
a 12196 13418 32.3247
a 12197 4411 44.7191
a 12198 9885 0.4932
a 12198 2956 12.0218
a 12198 4 8.6018
a 12199 6 0.5508
a 12199 391 16.9582
a 12199 19 5.9299
a 12200 1099 0.3053
a 12200 13618 7.1014
a 12201 12202 0.3449
a 12202 11271 1.3658
a 12202 12201 0.3449
a 12202 3426 4.8398
a 12203 9061 35.8912
a 12203 8986 1.0433
a 12203 3360 0.517
a 12204 5358 6.691
a 12205 3612 96.2568
a 12206 11223 3.1003
a 12207 1715 23.4907
a 12207 1722 6.9307
a 12208 10237 0.5378
a 12208 1266 9.7006
a 12209 2311 9.2786
a 12211 12222 0.4637
a 12211 10923 140.1209
a 12212 12213 0.977
a 12213 3245 2.389
a 12213 12212 0.977
a 12214 12215 0.7999
a 12215 625 32.0827
a 12215 12583 1.849
a 12215 12214 41.1808
a 12216 12217 31.5564
a 12217 12583 1.7798
a 12217 12216 0.8323
a 12217 602 69.9094
a 12218 6981 0.6998
a 12219 12220 0.7704
a 12219 11965 3.3206
a 12219 11952 28.7978
a 12220 12219 0.7704
a 12221 8686 0.6732
a 12222 12211 0.4637
a 12223 3290 0.707
a 12224 2211 2.2637
a 12225 3595 12.2897
a 12226 10204 47.5244
a 12227 12228 1.5559
a 12228 7296 0.6127
a 12228 1571 11.4458
a 12229 3745 0.5119
a 12229 13169 14.521
a 12230 13169 0.6847
a 12231 13601 2.2342
a 12232 9603 142.8571
a 12233 463 25.2468
a 12233 9600 19.2665
a 12233 10108 25.2382
a 12234 1575 20.1168
a 12234 2019 1.4076
a 12235 788 7.2209
a 12235 787 11.0117
a 12236 8605 30.7506
a 12236 12047 31.9156
a 12236 12237 2.4178
a 12237 12585 2.5481
a 12237 12236 2.4178
a 12237 12047 5.0458
a 12238 11005 0.8122
a 12238 12256 2.1398
a 12239 9678 13.2653
a 12240 9998 0.1368
a 12240 9997 334.5246
a 12240 4663 6.7543
a 12241 7065 10.0915
a 12242 4245 73.0467
a 12243 3740 0.715
a 12244 13126 0.6934
a 12244 9305 1.6301
a 12244 9306 8.7214
a 12245 10834 4.0457
a 12246 3048 98.3854
a 12248 12249 1.3169
a 12248 10826 4.1645
a 12249 2804 2.3422
a 12249 12248 1.3169
a 12250 10273 1.7806
a 12250 12251 0.9972
a 12251 12250 0.9972
a 12251 10275 24.7046
a 12252 12146 9.8532
a 12252 10822 0.7733
a 12253 9759 1.0663
a 12254 7208 6.3158
a 12255 6062 1.777
a 12256 9952 6.7255
a 12257 7353 1.8821
a 12258 4357 3.7771
a 12259 5238 6.4231
a 12260 13311 0.4954
a 12260 12261 1.6272
a 12260 10193 1.5458
a 12261 13310 0.4234
a 12261 10196 1.6488
a 12261 12260 1.6272
a 12262 12263 0.6098
a 12262 12264 2.1989
a 12263 12262 0.6098
a 12263 12265 2.201
a 12264 12265 11.0092
a 12264 11005 4.9399
a 12265 12264 0.6178
a 12265 12238 114.0956
a 12266 10377 3.0659
a 12266 5398 18.4882
a 12266 12267 2.8325
a 12267 12266 2.8325
a 12267 5407 10.399
a 12268 2393 3.6907
a 12269 10361 4.1378
a 12270 9480 223.8104
a 12271 121 2.0038
a 12271 12270 3.7426
a 12272 4334 0.5594
a 12273 13341 0.4644
a 12273 12950 1.6121
a 12273 6453 2.5502
a 12274 2984 0.9626
a 12274 12276 0.6444
a 12275 12274 1.08
a 12276 9951 0.9569
a 12276 3522 30.6994
a 12277 9054 0.5436
a 12278 4187 0.2808
a 12278 4181 0.535
a 12278 12279 0.383
a 12279 12278 0.383
a 12279 6375 14.3503
a 12280 1672 95.9774
a 12281 8685 1.0937
a 12282 13414 1.0051
a 12282 1135 5.9479
a 12283 10800 122.4504
a 12283 7812 20.9097
a 12283 10802 600.4498
a 12284 480 2.6762
a 12285 2477 1.1131
a 12285 12284 1.2794
a 12286 11975 19.7122
a 12286 6246 3.6943
a 12286 8275 4.3344
a 12287 12288 0.4543
a 12287 11137 4.842
a 12288 12287 0.4543
a 12288 12485 3.2925
a 12289 12485 0.7092
a 12289 12287 0.9295
a 12290 8345 1.2442
a 12290 12416 0.9432
a 12290 7595 10.7935
a 12291 286 0.5774
a 12291 12292 0.72
a 12292 12291 30.2646
a 12293 1858 0.6098
a 12294 3677 1.9658
a 12295 6245 4.536
a 12296 8405 3.3919
a 12298 3324 0.8964
a 12299 1767 7.8336
a 12299 12300 3.4157
a 12300 12073 17.6083
a 12301 7061 0.99
a 12302 470 3.5287
a 12303 6367 0.756
a 12304 12121 0.5033
a 12304 12123 4.9291
a 12305 6770 45.2312
a 12306 11007 20.3998
a 12306 284 27.5105
a 12307 6681 2.3256
a 12308 12426 0.5652
a 12308 9859 9.6437
a 12308 780 4.3488
a 12309 12308 1.0649
a 12309 779 1.0976
a 12310 12311 0.4378
a 12310 12484 0.3924
a 12311 12310 0.4378
a 12311 1777 22.6631
a 12312 13282 0.3254
a 12312 10884 7.0978
a 12312 8714 36.3571
a 12313 9539 4.8024
a 12313 10427 1.6553
a 12313 5826 11.5949
a 12314 1263 5.0868
a 12314 10227 13.0075
a 12315 13499 36.6114
a 12315 182 2.4242
a 12315 12316 49.7935
a 12316 12315 2.4538
a 12317 4266 6.0653
a 12318 10905 0.6847
a 12319 2750 0.9598
a 12320 2734 0.8914
a 12321 12407 7.2266
a 12321 12322 48.2335
a 12322 11439 27.9684
a 12323 10289 1.1354
a 12323 4022 11.8721
a 12323 10288 4.5043
a 12324 3983 10.3285
a 12325 10880 5.0976
a 12326 12778 0.527
a 12326 9933 0.8633
a 12327 12444 23.0213
a 12327 12444 23.1494
a 12328 10908 4.4316
a 12329 3868 17.3894
a 12330 12427 0.5717
a 12330 12329 1.4767
a 12331 3885 26.1619
a 12334 6067 3.037
a 12335 5786 0.9403
a 12336 11853 19.1318
a 12337 8746 0.3766
a 12338 11872 0.2966
a 12339 6356 22.9529
a 12340 4270 0.4334
a 12341 4675 1.1441
a 12342 4650 2.1996
a 12343 12344 67.3854
a 12343 6714 5.3496
a 12343 7366 16.0265
a 12344 12343 0.9007
a 12344 6534 13.5011
a 12344 12345 3.7159
a 12345 6439 4.3474
a 12345 12344 3.7159
a 12345 4157 28.5041
a 12346 5540 0.2102
a 12347 10170 0.8338
a 12348 7854 3.7944
a 12348 12349 1.7186
a 12349 975 7.0747
a 12349 11119 1.3558
a 12350 2033 52.3558
a 12350 12348 7.4246
a 12351 9342 0.6754
a 12352 5800 1.2787
a 12353 6022 38.6594
a 12354 10272 1.2665
a 12354 4598 0.923
a 12355 7915 0.5767
a 12356 6251 0.8438
a 12357 12778 0.8647
a 12358 20 21.7807
a 12359 12358 1.8065
a 12359 1536 2.2061
a 12360 11374 10.1815
a 12361 8711 0.905
a 12362 4473 0.8568
a 12363 1214 1.813
a 12363 1717 7.2331
a 12364 9114 3.7835
a 12364 12365 1.535
a 12365 3932 10.7374
a 12366 7157 0.895
a 12367 453 13.5914
a 12368 12367 2.5632
a 12368 450 2.4926
a 12369 11800 3.4387
a 12370 4220 1.6826
a 12371 5161 2.0462
a 12371 12372 1.0577
a 12372 13257 1.3968
a 12372 12371 1.0577
a 12373 9795 2.065
a 12373 438 14.4785
a 12374 442 4.8751
a 12374 9795 1.7158
a 12374 12373 2.8066
a 12375 4265 1.6618
a 12376 4145 0.5638
a 12377 5215 1.7821
a 12378 5754 0.5782
a 12379 2064 10.8389
a 12379 2041 8.4614
a 12379 2042 6.6082
a 12380 9584 0.8208
a 12380 1218 0.5191
a 12381 9584 1.5775
a 12381 12380 1.9814
a 12382 9901 1.2334
a 12382 11331 1.7921
a 12383 10333 0.3355
a 12384 11376 6.9638
a 12384 11726 4.9471
a 12384 8525 0.7466
a 12385 7765 0.4529
a 12386 3690 1.6812
a 12387 2757 0.7862
a 12388 9060 0.8143
a 12389 3724 2.425
a 12390 11023 27.2966
a 12391 3274 15.0955
a 12392 7964 9.5246
a 12393 10223 0.9259
a 12394 8103 0.3103
a 12395 8030 0.4565
a 12396 8105 0.4406
a 12397 3812 23.719
a 12398 4025 0.7618
a 12399 3750 6.8047
a 12399 3834 3.9154
a 12399 3631 15.1834
a 12400 3215 1.836
a 12401 9044 14.8234
a 12401 10179 2.0228
a 12402 12401 1.0555
a 12403 2728 0.4349
a 12404 4023 1.9872
a 12405 7027 47.8514
a 12405 13105 4.9068
a 12405 2109 15.1639
a 12405 9661 4.0824
a 12406 7622 10.206
a 12406 5605 3.0564
a 12406 5464 0.463
a 12407 8411 26.7602
a 12408 9892 13.465
a 12408 12407 130.3757
a 12409 7286 1.4098
a 12409 10857 6.5203
a 12410 8099 0.3974
a 12410 9029 304.8399
a 12411 12410 0.5702
a 12412 9029 0.5134
a 12412 3638 3.4891
a 12413 12412 2.7281
a 12414 8411 10.7798
a 12414 12423 34.2936
a 12415 435 15.8825
a 12415 10028 13.2919
a 12416 12290 0.9432
a 12416 7095 13.9471
a 12417 12541 0.4601
a 12417 5492 2.7029
a 12417 5597 7.2468
a 12418 7865 10.5005
a 12419 8616 44.6128
a 12419 12418 1.8022
a 12420 10982 13.7268
a 12421 12422 1.2636
a 12421 8969 32.2603
a 12422 37 40.0752
a 12423 9405 4.3474
a 12423 12414 34.2936
a 12423 9457 25.9304
a 12423 9390 7.3138
a 12424 452 47.2648
a 12424 1534 5.3122
a 12425 452 182.708
a 12425 9873 8.8078
a 12425 12424 2.3177
a 12426 12309 1.1131
a 12426 12308 0.5652
a 12427 12428 0.882
a 12427 12430 0.9223
a 12428 12059 90.823
a 12428 12329 0.6012
a 12429 12430 0.9389
a 12429 12428 0.9043
a 12430 12331 0.2664
a 12431 2531 0.7373
a 12432 3846 1.075
a 12433 3214 1.2398
a 12434 2674 0.9079
a 12435 2784 5.5786
a 12436 6965 12.6864
a 12437 13059 0.8993
a 12437 13058 6.0101
a 12438 12439 0.5602
a 12438 11205 8.7725
a 12439 11204 6.6326
a 12439 12438 0.5602
a 12439 782 78.8974
a 12440 9859 0.6458
a 12440 12426 486.985
a 12441 8018 11.3861
a 12442 11206 29.1946
a 12442 12440 7.5118
a 12442 8019 14.0947
a 12443 3156 7.7522
a 12443 1865 7.1575
a 12444 10304 9.6739
a 12445 3520 0.9742
a 12445 13536 12.0931
a 12446 3173 0.9799
a 12446 7738 19.8151
a 12447 289 2.1089
a 12448 12538 1.4522
a 12449 11952 0.4687
a 12449 6979 0.2138
a 12449 12450 2.7468
a 12450 7300 1.8742
a 12450 11952 2.7418
a 12451 1040 12.6089
a 12451 5 22.6786
a 12452 8315 5.0004
a 12452 3646 3.4294
a 12452 3830 3.1334
a 12453 1768 0.8201
a 12454 485 9.4644
a 12454 12833 5.9724
a 12455 1725 8.3218
a 12456 1726 26.7005
a 12456 12455 6.2244
a 12457 3351 8.6234
a 12457 621 1.5732
a 12458 9069 0.4219
a 12458 6917 3.1723
a 12459 12458 0.6624
a 12459 10942 0.4262
a 12460 9930 0.3931
a 12460 9069 134.8318
a 12461 7106 4.9543
a 12461 12460 7.0726
a 12462 7755 4.4417
a 12463 76 1.5012
a 12463 12462 2.4854
a 12464 12465 0.6754
a 12464 1230 25.1618
a 12465 86 0.2808
a 12465 12466 1.6718
a 12466 82 4.8355
a 12466 86 1.6798
a 12467 7449 2.993
a 12468 12467 6.3004
a 12469 8356 2.4876
a 12470 13317 8.5946
a 12470 4264 6.7572
a 12470 3872 17.1763
a 12471 3926 0.4882
a 12472 4036 2.2572
a 12473 4036 27.5524
a 12474 7765 1.1822
a 12475 3983 3.9398
a 12476 4170 7.3858
a 12476 4161 0.6365
a 12476 9324 0.8158
a 12477 12476 2.5985
a 12477 9270 0.6278
a 12478 10506 7.1177
a 12478 4500 0.5393
a 12479 262 17.339
a 12479 9805 8.1922
a 12479 580 8.6386
a 12480 12481 0.1613
a 12480 1083 0.3319
a 12480 1082 25.4894
a 12481 12480 0.1613
a 12481 12482 0.8057
a 12481 11165 10.656
a 12483 13133 1.7316
a 12485 12289 28.709
a 12485 7608 7.1782
a 12486 3864 0.7006
a 12487 3661 0.9878
a 12488 626 12.9247
a 12488 13027 0.6487
a 12488 625 7.1395
a 12489 67 21.4846
a 12489 12490 2.6734
a 12490 1997 3.3574
a 12490 12489 12.791
a 12491 1954 3.8484
a 12491 11145 2.443
a 12492 1956 2.2608
a 12493 9660 23.6599
a 12494 3816 0.6228
a 12495 5846 5.283
a 12495 4108 7.3591
a 12495 10187 1.2146
a 12496 5846 0.2218
a 12496 6020 28.2103
a 12497 3164 1.7374
a 12498 3164 22.5365
a 12499 6853 13.7246
a 12499 735 75.6852
a 12500 11483 0.5738
a 12501 4006 0.5472
a 12502 12504 0.7862
a 12502 4676 10.1167
a 12503 4308 0.4536
a 12503 4314 4.1803
a 12504 10278 0.4536
a 12504 12503 174.1177
a 12505 12507 1.5379
a 12507 2343 1.2132
a 12507 2369 9.5234
a 12508 8063 2.2169
a 12508 3858 3.9233
a 12508 3032 7.5794
a 12509 2692 0.5148
a 12510 3383 0.4536
a 12511 1925 0.851
a 12511 1916 21.8455
a 12511 13094 3.8419
a 12512 9454 0.4262
a 12512 96 20.749
a 12513 10107 0.9828
a 12514 10994 3.1759
a 12514 12515 53.5155
a 12515 12514 0.5933
a 12515 12517 7.4349
a 12516 12514 2.5013
a 12516 12517 0.5789
a 12517 12516 0.5789
a 12517 5934 24.833
a 12518 536 5.3777
a 12519 3892 20.6242
a 12520 3726 13.4909
a 12521 5989 0.3758
a 12522 6017 6.6067
a 12523 5988 3.4265
a 12523 12937 2.9664
a 12523 5989 10.5127
a 12524 3216 2.5387
a 12526 3942 1.2809
a 12527 1727 0.5472
a 12527 1668 11.479
a 12527 1746 3.7778
a 12528 2609 1.1326
a 12529 2625 4.7153
a 12530 11958 31.7772
a 12531 12530 3.7613
a 12531 13019 1.1167
a 12532 12533 0.959
a 12532 13300 3.8196
a 12533 12532 0.959
a 12533 13403 4.2984
a 12534 9882 2.5387
a 12534 10021 2.5524
a 12535 10022 0.3146
a 12536 10601 0.9403
a 12537 10748 1.5422
a 12538 12539 4.74
a 12538 11803 1.8418
a 12539 12538 9.3999
a 12539 12540 0.5126
a 12541 12417 11.4925
a 12542 10842 0.6444
a 12543 2148 1.0354
a 12544 7978 1.679
a 12545 9526 21.6895
a 12546 400 34.7882
a 12547 4538 4.3286
a 12548 3702 7.835
a 12549 10314 0.7603
a 12550 10962 2.1103
a 12550 12551 0.5825
a 12551 12550 0.5825
a 12551 10996 15.3886
a 12552 5940 12.3646
a 12552 13132 5.081
a 12553 12554 0.828
a 12553 4255 0.1994
a 12553 9060 4.4197
a 12555 12291 1.2895
a 12555 1621 19.5638
a 12556 1610 5.3885
a 12556 12555 0.7769
a 12557 8649 0.4939
a 12558 8518 0.9821
a 12559 7961 1.2895
a 12560 33 1.314
a 12560 7670 2.1974
a 12561 12562 1.0843
a 12562 7400 10.3774
a 12563 12561 0.8554
a 12563 12060 5.3912
a 12564 13415 0.6394
a 12564 857 0.6221
a 12564 13408 4.1278
a 12565 11188 7.5715
a 12566 12420 11.5922
a 12566 486 2.9822
a 12567 10838 0.6235
a 12568 2007 39.9392
a 12568 12901 1.4839
a 12568 2006 6.0768
a 12569 8959 1.1189
a 12569 12512 2.8282
a 12570 5329 0.6178
a 12571 6872 1.4918
a 12572 11874 436.3831
a 12573 9634 60.3742
a 12574 6060 0.9022
a 12575 6259 3.2278
a 12577 5288 0.3298
a 12578 63 26.9186
a 12578 62 35.9662
a 12579 436 6.4721
a 12579 9714 1.4069
a 12579 8664 0.702
a 12580 8568 5.1588
a 12581 1502 6.3835
a 12582 9519 2.0506
a 12583 12215 1.849
a 12583 12217 1.7798
a 12583 13026 5.5885
a 12584 10944 0.2585
a 12585 12237 2.5481
a 12585 8605 2.0419
a 12585 8606 1.0613
a 12586 8607 4.4467
a 12587 7444 3.4956
a 12588 11048 5.9774
a 12589 12590 200.2753
a 12590 11289 7.7141
a 12590 11272 19.8691
a 12590 12589 40.6387
a 12591 8699 10.0678
a 12591 11848 6.0581
a 12591 3746 2.9311
a 12591 8700 55.8588
a 12592 8805 0.6214
a 12592 6028 1.9102
a 12593 10966 3.2364
a 12594 4037 1.0066
a 12595 3774 9.0331
a 12596 3213 1.1304
a 12597 12598 2.2831
a 12597 8360 5.6232
a 12597 8360 9.0266
a 12598 12597 2.2831
a 12599 12019 2.1593
a 12600 860 3.9449
a 12602 8823 0.7646
a 12602 8070 0.6883
a 12603 9679 2.5798
a 12604 7916 2.3774
a 12605 7061 20.6189
a 12606 3687 0.6977
a 12607 2697 0.3046
a 12608 10933 8.6976
a 12608 4128 8.3318
a 12608 8287 4.6339
a 12609 9362 8.3556
a 12609 10792 16.7555
a 12610 8283 3.6785
a 12611 4247 4.9464
a 12611 4241 12.2364
a 12611 3696 13.4431
a 12612 5982 1.373
a 12612 11538 60.5129
a 12612 12991 3.3732
a 12613 6003 2.7252
a 12614 5988 3.1241
a 12615 5987 2.1622
a 12616 6028 1.1491
a 12616 6027 3.8527
a 12616 6029 0.535
a 12617 12592 0.7546
a 12618 6028 0.3384
a 12619 6026 4.7686
a 12620 11504 0.6682
a 12621 4245 2.8123
a 12622 4189 4.5626
a 12623 12624 0.5746
a 12623 8321 8.8164
a 12624 12623 0.5746
a 12624 11014 2.3796
a 12624 7475 3.7382
a 12625 7454 16.0527
a 12625 9126 6.1567
a 12625 12626 3.055
a 12626 12625 3.055
a 12627 5852 17.8754
a 12628 6044 5.0688
a 12629 8376 60.9509
a 12630 9128 12.1183
a 12630 6410 9.6178
a 12630 4177 7.8019
a 12631 6551 5.8529
a 12631 6366 9.0086
a 12631 6718 6.9358
a 12632 11010 7.7047
a 12633 4073 3.1536
a 12634 9768 6.7932
a 12635 7198 98.011
a 12636 9775 7.0517
a 12637 9761 0.7762
a 12638 11654 1.3522
a 12638 11655 1.3126
a 12638 12639 2.5675
a 12639 12638 2.5675
a 12639 11655 3.9067
a 12639 11654 3.8938
a 12640 5846 9.2218
a 12641 5995 8.8978
a 12642 8867 4.1256
a 12642 12643 19.4332
a 12642 11365 4.6073
a 12643 12642 1.7467
a 12644 8724 2.057
a 12644 8723 5.0314
a 12644 8722 299.9182
a 12645 7975 3.1802
a 12645 7053 0.1274
a 12645 11217 44.2025
a 12646 10188 1.0298
a 12646 10417 6.0732
a 12646 5448 3.5957
a 12647 3919 8.6975
a 12647 9058 3.8462
a 12647 3970 10.2578
a 12648 12084 5.7197
a 12649 4024 8.2641
a 12650 9472 8.4017
a 12651 8672 7.6813
a 12652 2602 0.599
a 12653 3270 104.378
a 12654 3252 2.1953
a 12654 3244 70.1759
a 12654 12655 3.4711
a 12655 12654 3.4711
a 12656 3594 6.0127
a 12657 3596 1.5552
a 12658 2322 0.8064
a 12659 3389 1.5653
a 12660 11235 3.4855
a 12661 9474 1.2521
a 12662 12663 2.4782
a 12662 12663 6.9502
a 12662 8939 9.882
a 12663 10504 0.7157
a 12663 12662 2.4782
a 12663 12662 6.9502
a 12664 7790 6.4526
a 12664 7994 7.3634
a 12665 9833 3.6302
a 12665 9457 18.8352
a 12665 12851 8.532
a 12666 4906 4.7484
a 12667 4271 13.8398
a 12668 12669 1.2593
a 12669 12668 1.2593
a 12669 12670 1.427
a 12669 5875 2.2046
a 12670 12669 1.427
a 12671 5883 1.4702
a 12672 2494 2.3904
a 12672 12912 1.9375
a 12673 5279 0.7531
a 12674 7495 1.2859
a 12675 6274 3.4301
a 12675 6271 5.1415
a 12675 6270 140.8154
a 12676 6310 1.5948
a 12677 9811 11.5582
a 12678 9631 4.05
a 12679 6222 0.6185
a 12680 6222 0.4126
a 12681 9628 1.7006
a 12682 5143 9.1836
a 12682 5141 13.5353
a 12682 12683 5.0285
a 12683 11951 112.0706
a 12683 5141 9.9238
a 12683 12682 5.0285
a 12684 5114 0.5782
a 12684 5112 4.6865
a 12684 5116 4.1659
a 12685 12686 36.328
a 12685 7392 3.2738
a 12685 5111 10.3702
a 12686 12685 0.5328
a 12686 5117 11.7497
a 12686 4158 14.7449
a 12687 11716 3.2652
a 12688 9171 6.0574
a 12689 12690 3.3192
a 12689 4132 2.016
a 12689 3696 244.3772
a 12690 12689 3.3192
a 12691 6486 3.9103
a 12692 8904 0.2513
a 12692 6521 5.5627
a 12692 9365 5.094
a 12693 6629 9.2408
a 12694 6450 3.5568
a 12695 6666 10.1549
a 12695 6413 3.8477
a 12695 6471 27.6797
a 12696 6539 5.8061
a 12696 9148 4.4834
a 12696 6472 5.7319
a 12697 6725 9.1793
a 12698 6638 25.0255
a 12698 9321 8.8034
a 12698 6501 46.6305
a 12699 11415 0.8503
a 12700 4257 4.8283
a 12701 7383 1.8878
a 12701 8476 1.7942
a 12701 12702 3.8261
a 12702 8460 1.8266
a 12702 7381 1.8194
a 12702 12701 3.8261
a 12703 8476 1.8619
a 12703 8458 70.0372
a 12703 12704 3.883
a 12704 8473 2.0542
a 12704 8460 1.877
a 12704 12703 3.883
a 12705 10661 1.9584
a 12706 12707 2.6813
a 12707 6713 1.2485
a 12707 10627 2.2363
a 12707 12706 2.6813
a 12708 6764 0.5371
a 12709 12710 0.7344
a 12709 5011 3.4078
a 12709 12951 2.8274
a 12710 4986 20.7338
a 12710 12709 0.7344
a 12711 6742 7.6298
a 12711 7070 7.6457
a 12711 11798 5.31
a 12712 9970 1.0469
a 12713 12714 1.8497
a 12714 9971 1.2521
a 12714 12713 1.8497
a 12714 11639 10.0338
a 12715 9975 3.1126
a 12716 10603 6.6629
a 12717 9259 4.9334
a 12718 10612 1.7647
a 12718 12719 3.2119
a 12718 10610 1.8756
a 12719 10616 0.7236
a 12719 10611 1.795
a 12719 12718 3.2119
a 12720 10550 3.5302
a 12721 6584 5.0278
a 12721 8489 5.3676
a 12721 8489 10.8101
a 12722 11643 3.127
a 12723 11255 0.4442
a 12724 1315 4.7405
a 12725 9705 0.8834
a 12725 13065 5.1596
a 12726 2449 4.4417
a 12727 8967 59.8842
a 12728 8100 6.133
a 12728 614 5.2733
a 12728 13030 38.7382
a 12729 7010 0.7668
a 12730 816 1.111
a 12731 11438 224.3834
a 12732 3649 14.9717
a 12733 5880 2.0189
a 12734 472 1.3651
a 12734 12828 1.0555
a 12735 3036 3.6612
a 12735 2899 0.6898
a 12735 12736 1.021
a 12736 1569 19.8166
a 12736 2899 0.6588
a 12737 4147 1.2518
a 12737 10878 13.2919
a 12738 2295 18.2686
a 12739 2342 7.4074
a 12739 13368 11.4271
a 12740 8818 0.8561
a 12741 10943 5.1948
a 12742 4544 7.0567
a 12743 7707 0.7178
a 12743 7724 0.6538
a 12743 13057 315.4473
a 12744 12745 0.6552
a 12744 7663 9.1489
a 12745 7719 5.1804
a 12746 9954 2.1226
a 12746 11118 3.1759
a 12747 4486 2.3306
a 12748 2488 45.2118
a 12748 12911 2.1578
a 12749 2080 13.5792
a 12750 4508 1.6452
a 12751 4506 133.3616
a 12752 4557 1.5826
a 12753 8148 0.8798
a 12753 3540 0.3161
a 12753 10097 4.3315
a 12754 12998 0.1692
a 12754 12755 4.2881
a 12755 12754 5.0336
a 12755 3937 2.1946
a 12756 11739 2.8231
a 12757 7048 0.2009
a 12758 4080 3.1896
a 12758 3689 1.6891
a 12758 2601 9.9022
a 12759 3437 0.797
a 12760 4789 1.3522
a 12761 4790 1.3522
a 12762 12763 1.1434
a 12763 12764 0.823
a 12763 5902 1.6943
a 12763 12762 1.1434
a 12764 12763 11.7172
a 12764 12932 1.206
a 12764 5899 53.0694
a 12765 1494 5.2531
a 12765 12766 2.0988
a 12766 8159 1.643
a 12767 9657 0.9
a 12767 3947 8.969
a 12767 7521 8.8056
a 12768 11588 1.4011
a 12769 12770 1.3867
a 12770 12769 1.3867
a 12770 2769 6.0206
a 12770 2285 100.4451
a 12771 1326 7.4426
a 12772 10159 1.1707
a 12772 10157 4.7678
a 12773 10154 53.7583
a 12773 10161 0.2952
a 12774 7348 0.4097
a 12774 7628 0.9922
a 12775 11546 3.6122
a 12775 282 7.0308
a 12775 3336 13.585
a 12776 7368 1.1023
a 12777 12273 1.4573
a 12777 7368 11.6352
a 12778 12326 0.527
a 12778 12325 1.9555
a 12779 10907 6.043
a 12780 12781 6.3216
a 12781 7959 0.3514
a 12781 10158 7.7434
a 12781 12780 6.3216
a 12782 3459 0.4738
a 12783 211 4.8098
a 12783 10218 4.8218
a 12783 12784 3.1824
a 12784 12783 3.1824
a 12785 13249 0.4889
a 12785 13248 8.9647
a 12785 8494 6.9725
a 12786 3664 15.0091
a 12787 11667 7.3951
a 12788 12789 3.6742
a 12789 9269 0.9914
a 12789 6765 1.4011
a 12789 12788 3.6742
a 12790 6768 0.0965
a 12790 9923 8.3604
a 12790 6769 16.2784
a 12791 12792 2.8102
a 12792 11720 1.1254
a 12792 7682 1.1189
a 12792 12791 7.6035
a 12793 9923 3.3073
a 12793 12794 1.525
a 12793 9263 2.2572
a 12794 6768 2.7632
a 12794 12793 1.525
a 12794 6767 1.7777
a 12795 12796 4.613
a 12796 2762 7.2752
a 12796 12795 4.613
a 12797 9320 7.5946
a 12798 3272 3.9334
a 12798 10216 8.5673
a 12799 3572 1.5019
a 12800 3573 5.4202
a 12801 10796 5.927
a 12802 8223 34.1288
a 12802 12059 16.9092
a 12803 4035 0.432
a 12804 8532 1.7196
a 12805 6688 1.895
a 12805 12806 1.1261
a 12806 63 0.9713
a 12806 12805 1.1311
a 12807 11552 3.2321
a 12808 4057 33.274
a 12809 4100 0.5076
a 12810 3893 2.9894
a 12810 3949 3.623
a 12810 12811 2.0858
a 12811 12810 2.0858
a 12812 9964 1.5991
a 12812 2763 58.3488
a 12812 8362 0.8172
a 12813 9465 10.5437
a 12813 101 0.9684
a 12813 179 13.9961
a 12814 403 0.414
a 12814 7957 11.7209
a 12815 2201 3.6799
a 12815 12814 2.0081
a 12816 7354 9.5804
a 12816 10223 30.5798
a 12817 11616 17.8006
a 12817 12816 2.6467
a 12818 8027 2.965
a 12819 1862 1.7366
a 12819 12820 1.3637
a 12820 12819 5.8981
a 12820 1861 5.4641
a 12821 2803 2.0902
a 12821 266 7.8113
a 12822 12823 39.6799
a 12822 11920 4.1674
a 12822 11196 5.3971
a 12823 11196 3.6194
a 12823 12822 2.9218
a 12823 11920 7.1294
a 12824 4155 1.9901
a 12825 10689 1.021
a 12825 10677 0.2844
a 12825 10691 2.5704
a 12826 8143 8.2958
a 12827 3332 6.7046
a 12828 471 15.3029
a 12828 12734 1.003
a 12829 468 402.1989
a 12829 7347 1.2593
a 12830 12832 0.949
a 12830 6077 2.2644
a 12830 10825 3.3264
a 12831 6072 5.6311
a 12831 12830 0.7157
a 12832 12830 0.949
a 12832 12831 0.6142
a 12832 6069 22.014
a 12833 9448 3.0622
a 12834 12454 5.8054
a 12834 10306 11.4689
a 12835 6276 0.8957
a 12835 12836 1.3385
a 12835 12836 32.4533
a 12836 10056 1.5055
a 12836 12835 1.3385
a 12836 12835 1.3378
a 12837 12838 0.949
a 12837 6280 3.2551
a 12838 6279 0.9691
a 12838 12837 0.949
a 12839 1325 12.6684
a 12839 8091 121.8474
a 12840 1984 191.2193
a 12840 12841 40.1426
a 12841 71 22.5792
a 12841 1979 0.4399
a 12842 12843 0.4608
a 12842 12844 2.0196
a 12843 13560 6.0795
a 12843 12842 0.4608
a 12844 4779 0.4853
a 12844 10818 37.1369
a 12845 4780 0.6718
a 12845 12846 2.5891
a 12847 4773 0.3715
a 12847 1915 20.1679
a 12848 1880 2.7691
a 12848 12847 3.479
a 12849 13095 0.3629
a 12849 1913 2.9938
a 12849 1916 2.4156
a 12850 6160 2.1118
a 12850 6163 0.3024
a 12850 6165 2.4271
a 12851 12665 8.532
a 12852 12096 0.3989
a 12852 3321 1.6006
a 12853 12852 0.8611
a 12855 12310 5.6199
a 12856 13208 3.7526
a 12857 2705 3.5575
a 12857 8553 3.3005
a 12857 2794 13.5713
a 12858 8275 3.0931
a 12858 12859 1.7849
a 12859 8248 1.7863
a 12859 12858 1.8058
a 12860 6253 2.2925
a 12860 12862 2.0455
a 12860 12861 2.0484
a 12861 12862 0.36
a 12861 6259 6.0386
a 12861 12860 2.0484
a 12862 12861 0.36
a 12862 12860 2.0455
a 12863 5354 1.7006
a 12864 11127 0.5558
a 12864 10408 2.8318
a 12865 12867 2.3688
a 12865 12868 0.3809
a 12866 12865 1.2017
a 12867 7885 3.4302
a 12867 6246 1.1095
a 12868 12865 0.3809
a 12868 12332 1.201
a 12869 12870 0.9029
a 12870 9642 1.1758
a 12870 12869 0.9029
a 12870 9643 0.9029
a 12872 4674 0.7805
a 12872 12871 40.0018
a 12873 4629 0.4831
a 12873 12874 0.977
a 12875 12873 0.977
a 12876 12877 25.5503
a 12877 2803 17.8003
a 12877 12333 0.8474
a 12878 2933 0.6084
a 12878 3127 4.8204
a 12879 3078 16.5742
a 12880 11563 0.3809
a 12881 11558 1.4198
a 12882 12176 0.4939
a 12882 8643 9.7826
a 12882 11028 28.1682
a 12883 12884 0.5882
a 12884 7802 2.4984
a 12884 12183 0.589
a 12885 5411 1.0094
a 12885 12886 8.7358
a 12886 5410 4.0874
a 12886 12885 2.119
a 12887 6289 1.3925
a 12888 8363 1.0361
a 12889 12890 1.2211
a 12889 5716 2.3134
a 12890 5522 0.995
a 12890 12889 1.2017
a 12891 1062 0.419
a 12891 13148 5.9004
a 12892 13373 0.2736
a 12892 8061 102.1131
a 12892 9794 2.6359
a 12893 4597 8.9741
a 12893 13165 0.6862
a 12894 13161 1.71
a 12895 1662 2.7792
a 12896 12897 1.1275
a 12897 10267 1.1498
a 12897 13162 0.6494
a 12898 2878 0.9842
a 12899 12194 3.3307
a 12900 6889 0.4536
a 12900 12901 4.3553
a 12901 12568 1.4839
a 12901 6889 4.3279
a 12902 4443 0.7682
a 12903 12904 1.1902
a 12904 2806 1.0958
a 12904 8274 52.2866
a 12905 10263 1.003
a 12905 12906 72.6339
a 12905 7884 1.2262
a 12906 12905 1.2254
a 12907 4605 0.9274
a 12907 12908 1.7993
a 12908 2805 1.4645
a 12908 12907 1.7993
a 12909 4660 1.1844
a 12910 11128 1.8389
a 12911 2808 1.4594
a 12911 12748 2.1593
a 12912 2876 1.1218
a 12912 12672 1.9375
a 12913 4598 3.7843
a 12913 12914 1.859
a 12913 12914 12.721
a 12914 4689 2.2795
a 12914 12913 12.5647
a 12914 12913 6.6729
a 12915 1658 1.7316
a 12915 9640 0.9403
a 12916 12915 0.9418
a 12917 1657 5.5194
a 12917 7878 48.4307
a 12918 12917 9.4431
a 12919 2661 10.2226
a 12920 4736 1.733
a 12920 12210 1.1074
a 12921 2514 1.2269
a 12921 12922 1.4306
a 12922 2517 1.3205
a 12922 12921 1.4335
a 12923 2507 72.8372
a 12923 12924 1.967
a 12924 12925 0.6538
a 12924 12923 6.4449
a 12925 2511 3.721
a 12925 2508 28.5631
a 12925 12924 14.5312
a 12926 56 0.7704
a 12926 12927 1.0145
a 12927 4517 0.2765
a 12927 12926 1.0109
a 12928 2789 14.364
a 12929 3727 0.6293
a 12930 2645 0.9482
a 12930 13193 7.8943
a 12931 11654 3.9053
a 12932 12764 1.206
a 12933 10085 1.9109
a 12934 3630 0.5638
a 12935 3630 2.1564
a 12936 5988 1.1765
a 12937 12523 2.9664
a 12938 4178 0.3204
a 12938 13341 9.1786
a 12938 7071 52.8122
a 12938 11415 3.6
a 12939 6700 0.7762
a 12939 12940 1.7215
a 12940 6386 0.7841
a 12940 12939 1.7215
a 12941 8481 5.2582
a 12941 8481 9.4018
a 12941 13501 18.3334
a 12942 7609 5.7064
a 12943 12946 26.0411
a 12944 6482 16.9926
a 12944 6447 7.9034
a 12945 12946 1.2571
a 12945 12944 1.2622
a 12946 12945 1.2571
a 12946 9596 0.6336
a 12947 12948 14.603
a 12948 12947 14.603
a 12948 12949 34.1554
a 12948 5018 7.1057
a 12949 12948 0.7596
a 12950 6680 0.6876
a 12950 13341 1.6121
a 12951 12121 0.6264
a 12951 4999 60.6825
a 12952 6901 20.8342
a 12952 7376 1.5127
a 12952 10647 23.2424
a 12953 7378 14.0456
a 12953 4976 3.0427
a 12953 7380 15.4685
a 12955 8184 2.1938
a 12956 11421 0.4435
a 12957 8362 0.9554
a 12958 7491 3.3775
a 12959 8889 0.3881
a 12960 3468 0.6638
a 12961 12962 0.5033
a 12961 9934 0.7214
a 12961 12963 1.3385
a 12962 12961 2.6036
a 12962 12964 0.7214
a 12962 12963 1.3399
a 12963 8888 0.7682
a 12963 12961 1.3385
a 12963 12962 1.3399
a 12964 12962 0.7214
a 12965 12966 0.9151
a 12966 4288 0.4334
a 12966 4447 1.1887
a 12966 12965 0.9151
a 12967 12968 1.0361
a 12967 4471 3.065
a 12968 4148 1.1354
a 12968 12967 1.0404
a 12969 5016 2.1211
a 12970 2355 3.81
a 12970 12971 115.0909
a 12971 4296 2.119
a 12971 12970 1.463
a 12972 12973 6.8945
a 12973 6912 0.4082
a 12973 6909 5.4113
a 12974 6905 0.5731
a 12974 12975 1.7496
a 12975 2348 2.9491
a 12975 12974 1.7496
a 12976 6905 1.6452
a 12976 12977 1.8216
a 12977 2347 2.61
a 12977 12976 9.671
a 12978 12979 50.5811
a 12979 4144 4.621
a 12979 11343 0.612
a 12979 12978 0.612
a 12980 4268 10.9858
a 12980 4143 0.2167
a 12981 4407 2.7029
a 12981 12737 2.0311
a 12982 4402 3.8635
a 12983 3311 3.5942
a 12983 10793 0.4846
a 12984 12983 0.4853
a 12985 4366 19.5487
a 12985 12986 5.3889
a 12986 6994 0.7632
a 12986 12985 0.9979
a 12987 6894 0.527
a 12987 6895 0.5796
a 12988 10312 0.1692
a 12988 13320 0.4637
a 12989 3844 2.7576
a 12989 12988 1.8432
a 12990 3894 1.1981
a 12991 12612 3.3732
a 12992 12993 0.4687
a 12993 4568 0.4183
a 12993 10180 0.4687
a 12993 12992 0.4687
a 12994 9609 1.1362
a 12994 9610 14.7495
a 12995 13211 3.1334
a 12995 9617 33.6659
a 12995 3813 3.757
a 12996 6178 3.5028
a 12997 6191 2.4509
a 12998 12754 1.877
a 12998 11307 0.9281
a 12998 3715 7.1237
a 12999 6041 60.8017
a 13000 13003 0.8561
a 13000 13001 1.0591
a 13000 11668 2.6388
a 13001 13002 0.9698
a 13001 13000 4.1597
a 13001 4155 5.3813
a 13002 13001 0.9698
a 13002 13007 1.2247
a 13002 4424 6.2899
a 13003 13000 0.8561
a 13003 5110 7.9906
a 13003 13007 1.7611
a 13004 13005 4.1729
a 13005 13004 0.5026
a 13005 12137 0.8633
a 13005 8899 6.8026
a 13005 9284 4.2768
a 13006 11978 0.8273
a 13006 13518 12.5179
a 13007 10538 7.483
a 13007 13002 1.2247
a 13007 13003 1.7611
a 13008 8968 6.7104
a 13008 13354 2.6453
a 13009 6851 1.6049
a 13009 8788 284.8028
a 13009 6845 244.4854
a 13010 13407 406.7887
a 13010 10302 4.2134
a 13011 13010 2.911
a 13012 13011 22.1306
a 13012 10302 29.1672
a 13014 1568 0.8827
a 13014 13013 1.3802
a 13015 7850 30.5746
a 13015 9685 6.0286
a 13016 2929 0.504
a 13016 1497 1.386
a 13016 2396 40.7051
a 13017 487 0.594
a 13018 8950 2.3494
a 13019 6972 7.6522
a 13020 257 3.2342
a 13021 695 1.247
a 13021 13020 0.7999
a 13022 694 3.7778
a 13022 13024 0.2693
a 13022 13025 0.486
a 13023 13022 0.8035
a 13023 111 17.0129
a 13024 13022 0.2693
a 13024 13023 0.8136
a 13025 13024 0.4709
a 13025 2560 12.7289
a 13026 12583 0.7927
a 13027 12488 0.6487
a 13028 8758 6.4166
a 13028 13029 0.5213
a 13029 13028 0.5213
a 13029 9706 48.9334
a 13030 12728 32.1007
a 13031 2520 3.6058
a 13031 4502 4.0248
a 13031 2523 27.2585
a 13031 4453 19.9404
a 13032 13039 0.4018
a 13032 483 5.9918
a 13033 33 1.121
a 13033 12560 1.7237
a 13034 13035 0.7222
a 13035 13034 2.0725
a 13035 1286 6.1416
a 13035 272 7.1179
a 13036 7165 0.7481
a 13037 7168 0.8266
a 13038 486 0.4046
a 13038 12420 2.9786
a 13039 13038 17.9903
a 13039 12134 9.6631
a 13040 483 0.4723
a 13040 7528 12.2933
a 13040 13039 5.9976
a 13041 488 12.66
a 13041 13040 3.8203
a 13042 13044 0.5299
a 13043 1298 113.1189
a 13043 258 1.2715
a 13044 258 0.5731
a 13044 13043 1.4659
a 13045 1253 4.0416
a 13045 7833 11.551
a 13045 13042 84.6582
a 13046 13045 4.4028
a 13046 11181 0.6293
a 13047 1256 25.8185
a 13047 13494 28.6269
a 13048 10130 0.8496
a 13048 12743 105.6507
a 13049 13068 5.3359
a 13050 10134 0.702
a 13050 13049 7.0322
a 13051 13050 6.673
a 13051 10135 0.679
a 13052 10139 0.6624
a 13052 13051 3.8966
a 13053 10138 0.6466
a 13053 13052 4.0673
a 13054 10137 6.5038
a 13054 13053 58.4823
a 13055 13054 17.2231
a 13056 10228 0.4896
a 13056 13055 10.3075
a 13057 13575 5.1466
a 13058 13056 9.9713
a 13059 1331 0.3974
a 13059 13058 1.0224
a 13060 13059 2.7504
a 13060 10045 50.7955
a 13061 10229 4.6966
a 13061 13060 1.3975
a 13063 11080 62.0564
a 13064 13070 6.4894
a 13064 10225 0.8842
a 13065 13064 13.4575
a 13066 13065 0.9871
a 13068 12725 1.373
a 13068 13067 1.2283
a 13069 6546 24.015
a 13070 10226 0.8158
a 13070 13048 7.5506
a 13071 480 0.5969
a 13071 7528 6.2885
a 13072 7850 16.0321
a 13072 13015 1.355
a 13073 6950 2.335
a 13074 13075 0.3334
a 13074 1778 2.453
a 13075 13074 0.3334
a 13075 1778 2.4365
a 13076 397 0.3578
a 13076 10306 0.684
a 13077 1817 1.3061
a 13077 1816 3.9643
a 13078 1817 0.6192
a 13078 13077 1.2571
a 13078 1818 39.0434
a 13079 7621 0.6991
a 13079 13078 53.4992
a 13080 13079 5.4028
a 13080 12436 14.8896
a 13081 3437 1.2607
a 13082 6991 3.9838
a 13083 13082 2.4919
a 13083 4775 2.2183
a 13084 9736 0.2657
a 13085 13084 0.7603
a 13086 13087 0.3226
a 13087 10998 12.3646
a 13087 6973 20.6249
a 13088 9449 1.3716
a 13088 9450 10.1117
a 13089 9449 7.7363
a 13089 13088 1.3709
a 13090 13096 1.7093
a 13090 7385 1.6978
a 13091 11551 0.4442
a 13092 1101 9.9317
a 13093 1468 0.7409
a 13094 1948 0.7459
a 13094 1925 3.8376
a 13095 4774 0.4536
a 13095 12849 0.3629
a 13096 8097 12.6072
a 13096 7385 1.7741
a 13097 852 3.3336
a 13098 13097 0.8496
a 13098 852 4.1962
a 13099 7843 7.9341
a 13099 11527 10.7338
a 13099 13159 4.3949
a 13100 11708 0.5537
a 13101 11707 0.5018
a 13102 7181 13.927
a 13102 8749 314.6926
a 13102 8748 2.4322
a 13103 4736 1.3565
a 13103 1657 9.8554
a 13104 8710 19.3543
a 13104 9988 232.3684
a 13105 1800 0.2218
a 13105 12405 4.9068
a 13105 2084 16.2547
a 13106 4666 1.3514
a 13107 13108 0.9677
a 13107 11163 10.9354
a 13108 289 0.517
a 13108 13107 7.985
a 13109 11010 0.2909
a 13110 5931 13.1731
a 13111 10441 0.9209
a 13112 10164 2.3515
a 13112 10308 45.7553
a 13112 5247 48.4402
a 13113 13114 1.6906
a 13114 10860 1.1902
a 13114 10865 4.3049
a 13114 13113 1.6906
a 13115 4205 0.2916
a 13116 4231 5.1523
a 13116 4230 2.6316
a 13116 13117 1.3543
a 13117 9780 0.7243
a 13117 9381 148.0459
a 13117 13116 1.3543
a 13118 5857 115.3562
a 13118 5858 5.8478
a 13118 10842 16.0783
a 13118 5861 2.6244
a 13119 9773 1.5581
a 13119 9778 6.1121
a 13119 9774 5.6657
a 13120 5655 0.9547
a 13121 5881 16.0245
a 13122 5884 1.5257
a 13123 7598 0.7661
a 13124 7597 0.4104
a 13125 9308 1.0994
a 13126 12244 0.6934
a 13127 7640 1.309
a 13127 11136 0.6631
a 13128 13127 0.6192
a 13129 7194 0.6962
a 13130 9300 1.1477
a 13131 7600 1.0404
a 13132 13135 0.6473
a 13132 13134 1.4105
a 13132 5937 7.2367
a 13133 7463 8.388
a 13133 12483 1.7316
a 13134 11959 0.6574
a 13134 10997 2.9995
a 13135 13132 0.6473
a 13135 5936 6.0358
a 13136 434 8.7048
a 13136 11022 16.2216
a 13137 9408 0.4493
a 13137 13136 16.7474
a 13138 7729 18.5998
a 13138 13137 3.8657
a 13139 8618 89.7391
a 13140 5709 1.7741
a 13140 5541 4.1458
a 13141 5541 0.4795
a 13141 8989 16.9164
a 13141 13140 4.1875
a 13142 6193 12.8451
a 13143 13145 1.1102
a 13144 11961 1.1405
a 13144 5154 7.8876
a 13144 13145 0.4493
a 13145 13144 0.4493
a 13145 405 320.3228
a 13146 6242 8.0417
a 13146 6242 9.5458
a 13146 6243 3.8203
a 13147 5707 5.4164
a 13148 1069 384.6645
a 13149 5707 0.6091
a 13149 10376 6.3569
a 13149 10370 4.4698
a 13150 5136 2.3933
a 13151 5670 1.9166
a 13152 2299 12.4229
a 13152 11405 7.2792
a 13152 5129 6.9278
a 13153 895 1.0094
a 13153 8665 3.5755
a 13153 916 13.7326
a 13154 6218 3.1442
a 13155 13157 0.5602
a 13157 6205 0.9554
a 13157 13156 27.7126
a 13158 5132 22.2547
a 13158 5133 12.6295
a 13158 5131 14.3957
a 13159 7921 0.977
a 13159 13099 32.0271
a 13159 10805 4.9982
a 13160 12150 50.6056
a 13160 13161 0.8525
a 13161 12893 0.8201
a 13161 13160 3.9532
a 13162 7882 1.1333
a 13162 12897 0.6494
a 13163 10267 25.0731
a 13163 13162 1.1578
a 13164 13163 0.5407
a 13164 4759 42.5184
a 13165 11052 0.8345
a 13166 7210 9.1678
a 13167 13166 2.2514
a 13167 9439 1.2802
a 13168 13169 0.535
a 13168 3745 14.423
a 13169 13168 0.535
a 13169 12230 0.6847
a 13169 13170 2.965
a 13170 13171 0.571
a 13170 3843 5.945
a 13171 3751 7.128
a 13171 13170 0.571
a 13171 13168 2.9549
a 13172 13173 2.6986
a 13173 6175 1.0094
a 13173 6179 3.1954
a 13173 13172 2.6986
a 13174 9471 1.0562
a 13174 13175 2.3839
a 13175 9471 68.7955
a 13175 7947 6.4339
a 13176 2586 0.3089
a 13176 3966 3.5618
a 13176 2584 13.9003
a 13177 7351 3.335
a 13178 8732 3.425
a 13179 4054 0.5342
a 13180 4129 0.3629
a 13181 13182 2.0045
a 13181 5479 14.1314
a 13182 5575 5.4302
a 13182 13181 2.0045
a 13183 10285 4.711
a 13184 8703 1.9166
a 13185 11663 1.3478
a 13185 8704 0.162
a 13185 8702 1.435
a 13186 7046 7.6954
a 13187 11674 0.4781
a 13188 3881 17.9519
a 13189 1712 2.0858
a 13190 3798 9.0821
a 13190 2672 0.7229
a 13190 8348 155.6765
a 13192 7097 27.414
a 13193 2638 3.3854
a 13193 12930 1.0116
a 13194 7825 5.4022
a 13194 13195 6.1574
a 13195 13194 153.9224
a 13195 7095 2.3868
a 13196 3830 0.2246
a 13197 12082 0.4601
a 13197 137 0.5062
a 13198 7824 4.4813
a 13198 13197 3.5215
a 13199 3367 0.162
a 13199 5300 15.385
a 13199 3369 6.408
a 13200 7064 0.5033
a 13201 8300 3.0348
a 13202 7816 0.7992
a 13203 3727 2.3002
a 13204 2613 1.9152
a 13205 7442 37.3337
a 13206 5935 2.5034
a 13207 2707 2.2126
a 13208 2794 155.9178
a 13208 2150 0.3233
a 13208 12856 3.7526
a 13209 2679 0.5933
a 13210 4099 0.6156
a 13211 9609 0.4723
a 13211 12995 3.1334
a 13211 3877 11.9246
a 13212 3813 0.7495
a 13212 12995 35.2184
a 13214 10971 2.8793
a 13215 13216 3.0722
a 13215 5316 5.22
a 13215 5304 9.4519
a 13216 13215 3.0722
a 13217 11536 2.6075
a 13218 3816 2.055
a 13218 13219 0.5285
a 13218 3654 15.6823
a 13220 4084 0.6329
a 13221 7763 7.8955
a 13222 11713 0.2758
a 13223 13224 0.2995
a 13224 13223 0.2995
a 13224 11713 3.3746
a 13225 3624 0.4673
a 13226 8533 4.3891
a 13227 11572 1.9037
a 13228 13229 3.0305
a 13229 13228 3.0305
a 13229 7361 4.2026
a 13229 6002 6.187
a 13230 2752 3.0787
a 13231 8537 1.3082
a 13232 8537 5.4522
a 13233 13234 1.6394
a 13234 8527 35.2785
a 13234 10983 0.6782
a 13234 13233 1.6394
a 13235 6032 1.6294
a 13236 13237 0.4766
a 13237 13236 0.4766
a 13237 3586 4.6548
a 13237 3585 8.591
a 13238 7405 31.2204
a 13239 13238 1.3003
a 13240 7858 5.5591
a 13241 13240 2.1823
a 13243 7223 0.4666
a 13244 9543 0.3578
a 13245 7217 4.1198
a 13245 7473 5.6074
a 13246 9578 0.5659
a 13247 238 0.4226
a 13247 13248 2.1197
a 13247 215 15.1452
a 13248 12785 8.9647
a 13248 238 2.2032
a 13249 12785 6.6975
a 13250 10510 7.7666
a 13250 8273 2.0333
a 13250 7994 7.2972
a 13251 7992 0.4327
a 13252 9520 0.6494
a 13253 9006 0.6646
a 13254 4381 0.7135
a 13255 10464 1.0397
a 13256 12371 1.3968
a 13256 13257 1.0577
a 13257 13256 2.9968
a 13257 10369 821.4066
a 13258 13259 2.7043
a 13259 5168 24.2345
a 13259 5187 0.3686
a 13259 13258 25.5536
a 13260 5527 11.4689
a 13261 8491 2.6086
a 13262 3771 6.5542
a 13263 11531 2.6834
a 13264 4243 0.4054
a 13266 8836 1.7129
a 13267 13268 0.4975
a 13268 9063 42.4057
a 13268 13267 0.4975
a 13268 9062 13.3927
a 13269 9064 1.152
a 13270 10411 0.5753
a 13272 10411 0.5105
a 13272 13271 0.6682
a 13272 7468 4.5
a 13273 12987 0.5681
a 13274 13275 0.4687
a 13274 13277 4.8636
a 13275 13274 0.4687
a 13275 493 218.1602
a 13275 761 504.0041
a 13275 759 9.6163
a 13276 493 0.5904
a 13276 13274 8.1173
a 13277 755 8.1958
a 13277 13275 4.9702
a 13279 779 0.4406
a 13279 13278 0.7488
a 13280 6996 4.0378
a 13280 13281 1.3039
a 13280 13281 1.283
a 13281 9936 4.6519
a 13281 13280 1.283
a 13281 13280 1.3039
a 13282 12312 0.3254
a 13283 5736 1.3968
a 13283 13286 1.0476
a 13283 12190 19.7574
a 13284 5580 0.2779
a 13284 5458 5.6002
a 13284 5263 8.9129
a 13285 757 0.5026
a 13286 13283 1.0476
a 13286 7495 9.2722
a 13286 11218 9.5918
a 13287 13584 4.1494
a 13289 12980 0.9878
a 13290 13291 0.5134
a 13291 4278 1.9807
a 13291 13292 0.5436
a 13293 2766 2.2039
a 13293 13371 2.5056
a 13294 13295 0.3334
a 13295 13294 21.9008
a 13295 6947 182.6382
a 13295 9936 12.8822
a 13296 6865 1.6435
a 13296 6863 4.765
a 13296 11984 3.9974
a 13297 9326 0.7819
a 13298 4459 1.2089
a 13299 9864 32.2068
a 13300 9664 7.637
a 13300 13299 1.931
a 13302 13303 1.314
a 13303 6664 0.527
a 13303 6566 1.4724
a 13304 6581 0.5962
a 13305 6661 0.4428
a 13306 7492 0.5119
a 13307 10204 260.0777
a 13307 7489 2.4545
a 13307 8865 5.971
a 13308 10195 0.6768
a 13309 10196 0.5594
a 13310 12261 0.4234
a 13311 12260 6.6278
a 13312 10193 0.3787
a 13313 9370 4.0817
a 13313 13314 2.3861
a 13314 4490 1.7129
a 13314 13313 2.3623
a 13315 10737 0.1973
a 13316 13317 1.9368
a 13317 13316 1.9368
a 13317 12470 8.5946
a 13317 4024 3.8628
a 13318 9182 4.8413
a 13319 8455 0.2102
a 13320 12988 0.4637
a 13320 11199 25.2806
a 13320 12989 1.6704
a 13321 5248 3.8023
a 13322 3430 9.6804
a 13323 5694 4.4165
a 13324 3936 0.4025
a 13324 13325 2.8346
a 13325 3799 2.6467
a 13325 3936 2.831
a 13326 10597 26.6334
a 13327 13398 0.9497
a 13327 13399 15.7493
a 13328 13329 1.7438
a 13329 14 1.8598
a 13329 13328 0.3168
a 13330 12122 1.2276
a 13331 8467 0.4925
a 13332 6638 0.3974
a 13333 8463 0.2146
a 13334 6497 0.8143
a 13335 13336 0.2383
a 13336 13335 0.2383
a 13336 21 16.4369
a 13336 8679 155.1672
a 13337 6440 0.2398
a 13337 13367 0.6775
a 13337 8479 5.8608
a 13338 11415 0.5198
a 13338 13339 0.8258
a 13338 6398 7.5161
a 13339 13338 0.8258
a 13340 6566 10.9905
a 13341 12273 0.4644
a 13341 12938 9.1786
a 13341 12777 11.3743
a 13342 4862 0.4594
a 13342 4876 4.4964
a 13342 10523 10.8122
a 13343 6604 0.2794
a 13344 4143 0.1836
a 13344 13288 0.9943
a 13344 4273 6.6132
a 13345 7944 0.6912
a 13345 4 9.3161
a 13346 3490 88.4519
a 13347 13348 6.9037
a 13348 13347 2.3688
a 13348 3490 8.9618
a 13349 13350 40.6732
a 13350 13348 6.0588
a 13350 13349 2.1125
a 13351 10416 0.3298
a 13352 161 0.6386
a 13353 10094 2.8044
a 13354 13353 4.3157
a 13354 8961 2.772
a 13355 13356 0.6055
a 13355 4316 1287.9598
a 13356 10281 0.5962
a 13356 12102 18.4577
a 13357 10872 1.0555
a 13358 13322 0.8071
a 13359 12003 7.033
a 13359 13358 1.4306
a 13360 13359 0.9036
a 13360 13322 1.4443
a 13361 467 10.3723
a 13362 7316 16.6522
a 13363 3085 0.8798
a 13364 3042 0.8172
a 13365 6999 14.4701
a 13366 10577 2.2745
a 13366 4962 5.6722
a 13366 10749 4.0212
a 13367 13337 0.6775
a 13368 8642 12.0586
a 13369 13368 1.327
a 13369 12739 1.1916
a 13370 8757 1.0339
a 13370 8795 2.9671
a 13371 2766 4.5365
a 13371 51 2.8584
a 13372 7734 2.2795
a 13372 10992 7.0344
a 13373 12892 0.2736
a 13373 438 125.5902
a 13374 13376 0.6883
a 13374 12446 0.5494
a 13375 13374 0.9734
a 13375 7728 30.402
a 13376 9950 0.5436
a 13377 758 14.4043
a 13377 13378 11.161
a 13378 774 16.5319
a 13378 8502 0.3269
a 13379 765 109.8259
a 13379 13377 1.5178
a 13380 8648 220.554
a 13381 6519 1.8662
a 13382 13393 9.1555
a 13382 8802 8.5277
a 13382 13383 169.906
a 13383 13384 0.5062
a 13383 13387 1.3297
a 13383 13382 15.1884
a 13384 13383 0.5062
a 13384 13387 0.5213
a 13384 13388 15.0695
a 13385 13388 2.052
a 13386 13387 1.561
a 13387 13383 0.4234
a 13387 13384 7.5254
a 13387 13386 6.2954
a 13388 13385 2.052
a 13388 13384 3.469
a 13388 13389 4.3409
a 13389 13388 4.3409
a 13390 13391 1.3997
a 13390 8802 2.7662
a 13390 13392 2.6222
a 13391 13390 1.3997
a 13392 13390 2.6222
a 13393 8801 263.643
a 13393 13382 9.1555
a 13393 13394 1.7388
a 13394 13393 1.7388
a 13395 8801 2.5027
a 13396 10273 8.6285
a 13397 11977 8.6105
a 13398 3860 0.9691
a 13398 13401 8.1914
a 13399 3946 0.8158
a 13399 12767 28.1448
a 13400 3555 18.4565
a 13400 3554 0.918
a 13400 7327 97.4405
a 13401 13400 12.9017
a 13401 3549 10.8194
a 13402 10084 8.7689
a 13403 13402 3.3502
a 13403 13402 4.0795
a 13404 11978 3.1313
a 13404 2106 3.6994
a 13405 11291 3.641
a 13405 11090 2.0002
a 13406 7262 13.5317
a 13407 13010 17.5507
a 13409 143 20.9342
a 13409 13410 2.2147
a 13410 1492 3.0665
a 13411 1765 0.8654
a 13411 1764 5.6743
a 13411 13412 15.0588
a 13412 1752 6.529
a 13412 280 0.6602
a 13413 11185 13.0774
a 13414 7506 3.0802
a 13414 13413 20.8523
a 13415 12563 20.3969
a 13416 5782 1.5898
a 13417 7531 16.3193
a 13417 270 3.5194
a 13418 3227 2.3861
a 13418 7348 3.101
a 13419 13420 357.8375
a 13420 2743 1.5329
a 13420 2745 7.848
a 13420 13419 4.6973
a 13421 7287 8.1367
a 13422 9015 7.637
a 13423 13592 12.4546
a 13423 766 323.477
a 13423 13424 5.8097
a 13424 13423 5.8097
a 13425 13426 3.2328
a 13425 13426 392.1886
a 13425 11372 4.5619
a 13426 11728 3.9564
a 13426 13425 12.0202
a 13426 13425 446.4513
a 13427 9123 1.877
a 13428 9672 41.125
a 13428 7727 1.4314
a 13429 13430 2.2572
a 13430 8480 1.8209
a 13430 13431 2.394
a 13430 13429 2.2572
a 13431 13430 2.394
a 13432 8480 1.5545
a 13432 8474 24.4615
a 13432 13433 24.7308
a 13433 13432 7.7745
a 13434 13299 3.0744
a 13435 9240 2.4221
a 13436 9703 1.8382
a 13436 9702 36.1168
a 13436 13406 23.6663
a 13437 13438 83.774
a 13438 606 136.6183
a 13438 605 4.4957
a 13438 13437 2.5934
a 13439 13442 4.2905
a 13439 13440 0.6595
a 13439 9675 13.0378
a 13440 13439 0.6595
a 13441 13442 0.8057
a 13442 13439 4.2905
a 13442 460 6.6031
a 13442 13441 0.8057
a 13443 13444 1.9066
a 13444 3210 3.7562
a 13444 13443 122.2055
a 13445 8628 15.0019
a 13446 13447 0.6026
a 13447 2440 1.7345
a 13447 13446 0.6026
a 13447 7434 20.8116
a 13448 13449 0.414
a 13449 13448 3.2555
a 13449 1537 6.0185
a 13449 11156 3.6281
a 13450 13451 0.7344
a 13451 2182 4.9421
a 13451 13450 0.7344
a 13451 1486 11.3954
a 13452 13453 0.5861
a 13453 2182 1.0778
a 13453 13452 0.5861
a 13453 2179 18.8921
a 13454 13455 10.0246
a 13455 9646 5.0926
a 13455 9647 14.6734
a 13455 13454 95.818
a 13456 9647 3.5906
a 13457 13458 0.8006
a 13458 7344 53.2312
a 13458 13460 2.2435
a 13458 13457 0.8006
a 13459 13460 0.6026
a 13460 13458 2.2435
a 13460 6 8.2454
a 13460 13459 0.6026
a 13461 3176 3.361
a 13461 3178 6.0977
a 13461 13462 0.7301
a 13462 13461 0.7301
a 13463 13464 0.6732
a 13464 1790 3.7368
a 13464 1783 77.6712
a 13464 13463 0.6732
a 13465 13466 0.6948
a 13466 1783 8.1785
a 13466 3178 2.3767
a 13466 13465 0.6948
a 13467 13468 0.4853
a 13468 1782 24.8628
a 13468 1478 7.0848
a 13468 13467 1.8341
a 13469 13470 2.0337
a 13470 1482 7.627
a 13470 1789 4.5022
a 13470 13469 3.2721
a 13471 13472 3.08
a 13472 1115 6.0782
a 13472 13471 0.715
a 13472 1117 5.9825
a 13473 13474 0.2484
a 13474 1471 3.5482
a 13474 13477 2.5978
a 13474 13473 0.2484
a 13475 13476 0.6502
a 13476 1477 5.8298
a 13476 1472 5.7679
a 13476 13475 0.6502
a 13477 13474 2.5978
a 13477 1469 6.025
a 13477 13478 0.275
a 13478 13477 0.275
a 13479 13481 1.5696
a 13480 8863 18.0988
a 13481 8863 1.6279
a 13481 8876 2.2363
a 13481 13479 1.5696
a 13482 11358 0.5818
a 13483 3085 0.5789
a 13484 8775 3.3329
a 13485 8442 1.7734
a 13485 11130 1.3018
a 13485 11129 4.7297
a 13486 3150 1.2902
a 13487 10705 10.0714
a 13488 6798 0.99
a 13488 10705 0.7769
a 13488 11412 2.6129
a 13489 13490 3.1378
a 13490 13489 3.1378
a 13490 7579 4.7362
a 13491 13492 2.1082
a 13491 5926 8.4362
a 13491 5925 6.7838
a 13492 13491 2.1082
a 13493 8078 3.0125
a 13494 13046 1.3636
a 13495 1258 7.5067
a 13495 13496 0.3499
a 13496 13495 0.3499
a 13497 10217 0.4471
a 13498 10217 2.0225
a 13499 12315 7.3922
a 13500 9852 2.8382
a 13501 6697 0.5299
a 13501 6591 2.2385
a 13501 12941 1.8194
a 13502 5051 5.729
a 13503 10701 2.5481
a 13504 6851 1.6344
a 13505 5053 6.1423
a 13506 12088 4.9054
a 13507 13508 0.1735
a 13508 1403 14.9602
a 13508 1431 5.6621
a 13508 13507 0.1735
a 13509 13510 0.3384
a 13510 1485 3.9132
a 13510 1206 13.4806
a 13510 13509 0.3384
a 13511 13512 0.6552
a 13512 13511 0.6552
a 13512 1474 37.2406
a 13512 1473 8.4938
a 13513 13514 0.774
a 13514 13513 0.774
a 13514 1384 6.7838
a 13514 2462 7.0142
a 13515 11462 3.0895
a 13516 13517 0.5026
a 13517 13516 0.5026
a 13517 1627 1.8972
a 13517 1626 75.8731
a 13518 13006 297.4661
a 13518 9660 20.7701
a 13519 13520 12.4825
a 13520 1204 3.8196
a 13520 11035 2.2658
a 13520 13519 1.0447
a 13521 13522 0.5479
a 13522 1440 8.8142
a 13522 13521 36.7958
a 13522 1437 7.6745
a 13523 13524 0.288
a 13524 2051 3.3408
a 13524 2023 1.1434
a 13524 13523 0.288
a 13525 8222 1.391
a 13526 13527 5.1962
a 13527 1744 0.2542
a 13527 1743 5.7996
a 13527 13526 5.1962
a 13528 13529 11.2849
a 13529 1607 8.123
a 13529 1611 8.4715
a 13529 13528 0.2873
a 13530 4415 0.4802
a 13531 9146 0.8482
a 13531 6552 5.976
a 13532 9147 0.743
a 13532 9139 2.0088
a 13533 8782 2.2982
a 13535 5373 0.9914
a 13536 13537 0.6199
a 13536 6934 8.3563
a 13537 13536 0.6199
a 13537 3520 12.0924
a 13538 3520 1.9742
a 13539 3497 0.5364
a 13540 11735 0.3074
a 13540 3546 3.1032
a 13540 11765 4.1479
a 13541 10646 6.9833
a 13542 10951 7.925
a 13543 11171 7.2626
a 13544 6054 2.0801
a 13545 10537 2.5718
a 13546 10538 2.7835
a 13547 11562 1.9318
a 13547 11560 1.6862
a 13547 13548 2.8044
a 13548 11557 1.7554
a 13548 11558 2.453
a 13548 13547 2.8044
a 13549 6029 0.3175
a 13550 13551 2.8087
a 13551 8468 24.617
a 13551 13550 2.8087
a 13551 13552 3.9478
a 13552 13551 3.9478
a 13553 13554 0.653
a 13554 1869 3.7843
a 13554 13553 24.8054
a 13555 4085 0.7805
a 13556 13557 2.1269
a 13556 3791 3.6943
a 13557 13556 7.6901
a 13558 12602 0.6811
a 13559 8816 0.329
a 13559 8819 74.1732
a 13559 8818 4.5626
a 13561 12842 0.3799
a 13562 13563 5.6138
a 13563 13562 5.6138
a 13563 10974 1.2254
a 13563 11219 1.3903
a 13564 10974 2.6986
a 13565 3278 4.608
a 13566 3238 1.9526
a 13567 8638 1.6812
a 13568 13569 2.3753
a 13569 13568 2.3753
a 13569 11548 2.9527
a 13569 11549 2.1535
a 13570 13571 30.6468
a 13571 3636 0.5249
a 13571 3794 8.6197
a 13571 13570 2.4574
a 13572 9713 10.3925
a 13572 13573 1.6524
a 13573 7922 5.9414
a 13574 6009 6.0545
a 13575 7708 0.625
a 13575 6960 65.6849
a 13575 10898 17.7696
a 13576 8269 5.6866
a 13577 1843 3.389
a 13578 4263 10.6308
a 13579 13580 3.5453
a 13580 5589 4.3322
a 13580 5744 3.7598
a 13580 13579 3.5453
a 13581 5780 2.2277
a 13582 13583 28.4438
a 13583 11785 2.1053
a 13583 13582 2.7504
a 13583 5582 4.1839
a 13584 13287 4.1494
a 13584 5679 9.7366
a 13584 13585 2.9398
a 13585 13584 2.9398
a 13586 5674 2.173
a 13586 5471 0.2484
a 13586 11481 28.5765
a 13587 161 46.79
a 13587 13588 0.3607
a 13587 9577 230.6419
a 13588 13587 0.3607
a 13589 10000 0.3478
a 13590 10320 0.5695
a 13590 10318 6.6823
a 13590 11383 4.6721
a 13591 13592 3.3329
a 13592 770 3.6698
a 13592 13591 3.3329
a 13592 13423 12.4546
a 13593 13594 1.5172
a 13594 4663 4.4935
a 13594 4577 2.911
a 13594 13593 0.6142
a 13595 9337 1.4638
a 13596 8032 6.5556
a 13597 13598 3.929
a 13598 2797 0.9821
a 13598 127 993.7243
a 13598 13597 3.929
a 13599 11535 3.2054
a 13600 13601 3.2134
a 13601 13600 3.2134
a 13601 12231 2.2342
a 13601 122 13.7484
a 13602 13603 2.7396
a 13603 129 3.4222
a 13603 128 7.6471
a 13603 13602 2.7396
a 13604 13605 3.2026
a 13605 30 19.7741
a 13605 13604 3.2026
a 13605 9577 10.183
a 13606 122 2.0455
a 13606 11397 8.9561
a 13606 13607 2.9988
a 13607 13606 2.9988
a 13608 13609 3.3566
a 13609 11535 4.559
a 13609 470 10.4868
a 13609 13608 3.3566
a 13610 7399 29.1139
a 13611 13612 2.1686
a 13611 1775 2.6129
a 13612 9618 2.3983
a 13612 13611 2.1686
a 13613 8636 0.9382
a 13614 12179 1.0145
a 13615 10856 1.2334
a 13615 490 25.092
a 13616 8798 5.0263
a 13617 11619 0.4198
a 13617 13373 2.2608
a 13617 452 8.91
a 13618 1540 7.7083
a 13618 379 12.2623
a 13618 12200 7.1014
a 13619 7734 2.9894
a 13619 2768 5.0148
a 13619 13372 26.2436
a 13620 6640 52.4309
