p sp 13620 33863
a 1 11068 2
a 1 2 1
a 2 8424 1
a 2 3 2
a 3 9929 1
a 4 2956 17
a 4 12198 22
a 4 13345 23
a 4 1040 46
a 5 1541 49
a 5 6 18
a 5 1543 18
a 5 12451 45
a 6 12199 1
a 6 13460 14
a 6 383 11
a 6 5 18
a 7 9882 5
a 7 11083 3
a 8 685 2
a 8 7769 6
a 8 7705 3
a 8 7704 7
a 9 671 5
a 9 655 7
a 9 441 41
a 10 630 11
a 10 655 7
a 10 11 24
a 10 9800 26
a 11 10 24
a 11 261 23
a 11 631 7
a 11 11658 16
a 12 11866 1
a 12 9799 2
a 13 14 50
a 13 310 8
a 14 304 8
a 14 13 50
a 14 8680 51
a 15 9419 25
a 15 22 4
a 15 314 9
a 16 10015 1
a 16 11936 14
a 17 446 10
a 17 445 11
a 17 18 42
a 18 667 5
a 18 653 5
a 18 669 42
a 19 1041 10
a 19 12199 10
a 20 460 14
a 20 12368 35
a 20 8914 14
a 21 301 11
a 21 312 50
a 21 13336 41
a 22 92 46
a 22 1092 6
a 22 15 4
a 23 8374 21
a 23 855 6
a 24 23 9
a 25 9819 23
a 26 29 26
a 26 163 2
a 27 197 15
a 27 9465 22
a 28 9607 39
a 28 183 22
a 28 104 36
a 29 164 3
a 29 5245 32
a 29 9504 10
a 30 13605 49
a 30 169 25
a 30 9346 19
a 30 11397 20
a 31 9378 1
a 31 2002 5
a 32 2450 1
a 32 10895 4
a 33 10241 5
a 34 495 15
a 35 754 2
a 35 8035 7
a 36 12126 1
a 36 851 33
a 36 395 5
a 37 10030 4
a 38 10858 2
a 38 13615 7
a 39 2533 1
a 39 12533 15
a 40 12094 11
a 40 7420 12
a 41 6997 2
a 41 11973 3
a 41 10109 3
a 42 10944 67
a 42 9606 20
a 42 224 11
a 43 8151 2
a 44 45 8
a 44 10123 4
a 44 8452 10
a 45 628 11
a 45 10069 1
a 45 44 8
a 46 10123 16
a 46 7673 42
a 47 13079 25
a 47 12436 1
a 48 656 12
a 48 9949 65
a 49 665 7
a 49 671 3
a 50 9948 1
a 50 9949 9
a 51 2800 2
a 51 7424 3
a 52 2765 10
a 52 2800 3
a 53 165 2
a 53 10164 30
a 54 60 7
a 55 4884 17
a 55 4889 21
a 56 12926 2
a 56 4533 6
a 57 10695 2
a 57 59 8
a 57 9163 16
a 59 6649 12
a 59 57 8
a 59 9281 11
a 60 4890 3
a 60 4891 51
a 61 10527 7
a 61 10530 1
a 62 6640 10
a 62 6618 15
a 62 12578 30
a 63 12806 2
a 63 11166 14
a 63 12578 22
a 64 175 1
a 65 174 1
a 66 1568 1
a 67 1985 23
a 67 1941 38
a 67 12489 2
a 68 3037 2
a 68 2885 40
a 68 11085 3
a 69 4773 37
a 70 133 23
a 70 466 11
a 70 124 12
a 70 9346 27
a 71 11145 1
a 71 12491 6
a 71 12841 38
a 72 7532 17
a 72 751 26
a 73 2015 1
a 74 577 8
a 74 75 17
a 75 1566 1
a 75 91 17
a 76 746 1
a 76 12462 1
a 77 7674 10
a 78 705 6
a 78 105 11
a 78 714 24
a 79 396 6
a 79 264 6
a 79 319 46
a 80 83 3
a 80 508 46
a 80 316 4
a 81 2563 6
a 81 396 7
a 81 2454 23
a 81 497 23
a 82 108 22
a 82 84 9
a 82 12466 6
a 83 80 3
a 83 501 6
a 83 7613 33
a 84 2561 7
a 84 82 9
a 85 512 5
a 85 518 9
a 85 4386 57
a 85 2561 4
a 86 749 1
a 86 36 8
a 87 11071 1
a 87 11072 6
a 87 2909 8
a 88 11972 31
a 88 7580 3
a 88 2454 23
a 88 316 6
a 89 516 57
a 89 721 34
a 89 517 5
a 89 514 5
a 90 98 26
a 90 501 5
a 90 4470 44
a 90 2534 5
a 91 1567 1
a 91 300 9
a 91 2417 7
a 92 315 11
a 92 11069 6
a 92 22 46
a 92 566 47
a 93 11069 3
a 93 11070 3
a 93 1092 16
a 94 1093 17
a 94 97 26
a 94 1097 4
a 95 5137 29
a 95 10840 28
a 95 9454 6
a 96 265 18
a 96 12512 26
a 97 1096 36
a 97 1094 12
a 97 94 26
a 98 90 26
a 98 504 6
a 98 251 24
a 98 718 7
a 99 1298 8
a 99 2946 23
a 99 3137 7
a 100 707 6
a 100 116 7
a 101 12813 2
a 101 8407 4
a 101 8067 17
a 102 322 7
a 102 497 23
a 102 1528 15
a 102 498 25
a 103 184 30
a 103 177 15
a 103 9465 18
a 103 197 22
a 104 26 64
a 104 28 36
a 104 186 23
a 105 78 11
a 105 686 12
a 105 688 54
a 106 2560 3
a 106 116 8
a 106 690 13
a 107 2844 15
a 107 7747 1
a 107 159 32
a 108 2530 38
a 108 78 9
a 109 2845 15
a 109 7746 2
a 109 107 19
a 110 178 25
a 110 214 18
a 110 114 7
a 111 687 8
a 111 691 11
a 111 13023 28
a 112 752 30
a 112 7398 5
a 112 202 3
a 113 356 24
a 113 7523 8
a 113 9959 10
a 114 9465 30
a 114 110 7
a 114 184 17
a 115 9732 15
a 115 332 13
a 115 341 27
a 115 727 11
a 116 702 14
a 116 699 28
a 116 688 10
a 116 100 7
a 116 106 8
a 117 9351 4
a 118 123 63
a 118 9579 17
a 119 10058 19
a 119 9579 28
a 119 125 21
a 119 2798 109
a 120 467 24
a 121 168 1
a 121 12270 2
a 122 13606 5
a 122 9603 29
a 122 13601 34
a 122 470 21
a 123 118 63
a 123 118 9
a 124 70 12
a 124 1774 7
a 125 11508 19
a 125 127 15
a 125 119 21
a 125 463 23
a 126 2797 3
a 126 10108 19
a 126 128 13
a 127 10108 32
a 127 125 15
a 127 13598 54
a 128 2798 19
a 128 13603 19
a 128 126 13
a 129 9601 13
a 129 13603 9
a 129 9600 13
a 130 11397 13
a 130 131 24
a 131 130 49
a 131 130 24
a 131 161 24
a 132 550 12
a 132 1286 4
a 132 1284 13
a 133 70 23
a 133 469 24
a 133 464 13
a 133 9202 19
a 134 7923 25
a 134 8255 5
a 134 8048 8
a 135 10944 10
a 135 11408 56
a 135 8709 8
a 136 8352 19
a 136 7921 42
a 137 12082 1
a 137 8302 36
a 137 8310 2
a 138 7741 1
a 138 2918 10
a 138 11000 15
a 139 8610 5
a 140 13092 3
a 140 9622 41
a 141 2529 2
a 141 2532 10
a 142 7963 5
a 142 10222 39
a 142 9473 8
a 143 1503 2
a 143 7304 30
a 144 13345 14
a 144 7687 12
a 145 8057 6
a 145 8049 15
a 145 11165 6
a 146 1025 1
a 146 1042 20
a 146 362 6
a 147 11972 1
a 147 504 8
a 147 11101 15
a 148 11632 16
a 148 11639 8
a 148 6779 1
a 149 2763 1
a 149 9043 4
a 149 5056 12
a 150 11957 3
a 150 151 13
a 151 1664 1
a 151 2796 9
a 152 11615 1
a 153 12003 1
a 153 13358 6
a 154 3523 7
a 154 7726 4
a 154 2964 34
a 155 1531 13
a 155 3529 20
a 155 9106 21
a 156 2875 18
a 156 2918 8
a 156 2824 18
a 157 9319 20
a 157 3529 31
a 157 3526 3
a 157 2485 7
a 158 2846 8
a 158 2568 8
a 158 2564 42
a 159 7744 1
a 159 2843 7
a 159 2563 25
a 160 7737 1
a 160 3526 15
a 160 2825 19
a 161 11508 12
a 161 13587 11
a 161 13352 2
a 161 131 24
a 162 7396 16
a 162 10858 21
a 162 10100 4
a 163 10099 16
a 164 29 3
a 164 163 26
a 164 223 29
a 165 10934 41
a 165 10824 37
a 165 53 2
a 166 43 4
a 166 1859 1
a 167 11363 3
a 167 2017 8
a 167 2394 42
a 168 76 2
a 168 13073 3
a 169 30 25
a 169 8755 4
a 170 7506 1
a 170 11982 3
a 171 2528 8
a 171 173 7
a 171 2817 75
a 172 9960 2
a 172 9413 12
a 173 171 7
a 173 7744 8
a 173 8134 18
a 173 2816 68
a 174 64 2
a 175 1 1
a 175 1546 3
a 176 2446 18
a 177 8523 23
a 177 186 32
a 177 103 15
a 178 8008 6
a 178 8009 6
a 178 110 25
a 178 181 17
a 179 8008 5
a 179 12813 35
a 180 8011 5
a 180 179 16
a 180 8007 7
a 180 11734 11
a 181 8017 5
a 181 10221 1
a 181 178 17
a 182 11740 1
a 182 12315 6
a 182 8016 20
a 183 221 28
a 183 9491 47
a 183 224 86
a 183 28 22
a 184 225 7
a 184 114 17
a 184 185 15
a 185 752 2
a 185 177 30
a 185 184 15
a 186 177 32
a 186 104 23
a 186 203 25
a 186 202 27
a 187 192 14
a 187 250 6
a 187 201 33
a 187 190 38
a 188 250 7
a 188 7328 2
a 189 190 13
a 189 188 38
a 190 189 13
a 190 191 22
a 190 187 38
a 191 194 16
a 191 8670 27
a 191 190 22
a 191 209 14
a 192 8670 5
a 192 187 14
a 192 206 33
a 193 194 26
a 193 8670 12
a 193 206 41
a 194 193 26
a 194 191 16
a 194 210 25
a 195 196 14
a 195 209 12
a 195 210 15
a 196 207 13
a 196 195 14
a 196 8492 13
a 197 8523 13
a 197 103 22
a 198 7397 8
a 198 203 34
a 198 202 28
a 199 200 9
a 199 7397 9
a 199 7328 28
a 200 201 6
a 200 199 9
a 200 250 30
a 201 206 18
a 201 200 6
a 201 187 33
a 202 198 28
a 202 186 27
a 202 112 3
a 203 198 34
a 203 205 33
a 203 186 25
a 204 7287 35
a 204 5245 12
a 204 5247 20
a 204 205 38
a 205 5244 23
a 205 9343 21
a 205 204 38
a 205 203 33
a 206 193 41
a 206 201 18
a 206 192 33
a 207 196 13
a 207 214 21
a 207 208 30
a 207 213 23
a 208 225 17
a 208 207 30
a 208 214 9
a 209 225 44
a 209 195 12
a 209 191 14
a 210 8492 10
a 210 194 25
a 210 195 15
a 211 12783 2
a 211 8492 28
a 211 212 13
a 212 196 15
a 213 207 23
a 213 8498 13
a 213 10218 19
a 214 207 21
a 214 110 18
a 214 208 9
a 215 7285 1
a 215 8495 14
a 215 13247 19
a 216 217 7
a 216 219 40
a 216 223 37
a 217 216 7
a 217 220 40
a 217 8494 10
a 218 7391 10
a 218 223 34
a 218 219 38
a 219 216 40
a 219 220 7
a 219 218 38
a 220 217 40
a 220 8493 17
a 220 219 7
a 221 183 28
a 221 7391 35
a 221 222 24
a 222 221 24
a 222 9606 44
a 222 7391 55
a 223 216 37
a 223 218 34
a 223 164 29
a 224 8967 15
a 224 42 11
a 224 183 86
a 225 208 17
a 225 209 44
a 225 184 7
a 226 227 4
a 226 9371 4
a 227 11021 4
a 227 226 4
a 227 231 66
a 228 229 13
a 228 242 11
a 229 230 7
a 229 237 37
a 230 226 64
a 230 231 7
a 230 229 7
a 231 230 7
a 231 234 51
a 232 11676 7
a 232 236 18
a 233 8117 4
a 233 236 7
a 234 233 26
a 234 235 7
a 235 234 7
a 235 237 7
a 235 230 44
a 236 235 26
a 237 235 7
a 237 232 14
a 238 13247 1
a 238 9497 15
a 239 9121 14
a 239 240 12
a 239 2537 24
a 240 241 23
a 240 239 12
a 241 9120 30
a 241 240 23
a 242 228 11
a 242 243 15
a 243 249 13
a 243 10110 3
a 244 246 8
a 245 8119 22
a 245 244 20
a 246 247 15
a 246 9292 22
a 247 11556 9
a 247 246 15
a 247 248 8
a 248 11676 14
a 248 8125 17
a 248 247 8
a 249 8125 6
a 249 9119 24
a 250 187 6
a 250 188 7
a 250 200 30
a 251 7336 3
a 251 98 24
a 251 11104 12
a 252 1026 2
a 252 679 9
a 252 146 21
a 253 1118 15
a 253 1367 2
a 253 9068 12
a 254 720 9
a 254 257 7
a 254 13021 14
a 255 262 50
a 255 259 51
a 255 569 8
a 256 361 9
a 256 360 23
a 257 715 52
a 257 254 7
a 257 701 4
a 258 12136 1
a 258 8933 4
a 259 315 11
a 259 299 11
a 259 255 51
a 259 568 47
a 260 9391 11
a 260 9804 21
a 260 9802 8
a 260 9803 4
a 261 11 23
a 261 11866 21
a 261 9798 7
a 261 1139 14
a 262 12479 43
a 262 255 50
a 262 313 8
a 263 482 6
a 263 1260 40
a 264 79 6
a 264 275 6
a 264 507 46
a 265 266 10
a 265 12821 11
a 266 269 13
a 267 1662 1
a 267 1658 34
a 268 10271 1
a 268 9453 3
a 269 11953 2
a 269 4654 13
a 270 271 1
a 270 7531 4
a 271 270 1
a 271 522 4
a 272 1285 6
a 272 553 8
a 272 13035 12
a 272 1281 10
a 273 274 15
a 273 2479 5
a 274 556 8
a 274 1294 11
a 274 2476 20
a 274 273 15
a 275 264 6
a 275 7768 22
a 275 7346 6
a 276 8545 16
a 276 3654 22
a 276 13221 1
a 277 3654 16
a 277 8816 11
a 277 3627 7
a 278 3726 8
a 278 12112 12
a 279 10072 5
a 279 1750 22
a 279 1501 3
a 280 13412 2
a 280 1498 2
a 280 281 12
a 281 11966 14
a 281 1754 23
a 282 1495 2
a 282 12775 12
a 282 283 7
a 283 3342 24
a 283 3346 12
a 284 12207 3
a 285 1694 19
a 285 1618 9
a 286 12293 7
a 286 11309 2
a 286 291 3
a 287 9983 6
a 287 288 7
a 287 290 1
a 288 13107 15
a 288 11163 24
a 289 12447 5
a 289 290 21
a 290 1608 7
a 290 287 1
a 290 9078 9
a 291 12555 1
a 291 12556 2
a 292 1215 2
a 292 11409 4
a 293 1201 12
a 293 294 20
a 293 1715 3
a 294 1200 12
a 294 8164 6
a 295 1725 2
a 295 1517 10
a 295 1527 12
a 296 8679 11
a 296 3002 28
a 296 304 50
a 296 8680 11
a 297 298 14
a 297 8681 13
a 297 306 51
a 297 3096 47
a 298 299 14
a 298 297 14
a 298 3007 47
a 298 305 51
a 299 259 11
a 299 298 14
a 299 569 50
a 299 2988 47
a 300 302 50
a 300 8684 14
a 300 91 9
a 301 302 8
a 301 575 50
a 301 8684 51
a 302 75 8
a 302 577 50
a 303 13329 6
a 303 8681 51
a 303 310 50
a 304 21 8
a 304 296 50
a 304 311 50
a 305 308 50
a 305 306 10
a 305 298 51
a 306 303 10
a 306 309 50
a 306 297 51
a 307 570 63
a 307 569 50
a 307 262 8
a 308 305 50
a 308 591 18
a 308 307 11
a 309 308 10
a 309 306 50
a 310 303 50
a 310 309 10
a 311 304 50
a 311 590 19
a 311 13 8
a 312 311 8
a 312 21 50
a 313 9419 3
a 313 314 50
a 314 255 8
a 314 313 50
a 314 315 50
a 315 92 11
a 315 259 11
a 315 314 50
a 315 567 48
a 316 7613 29
a 316 80 4
a 316 88 6
a 317 318 23
a 317 507 9
a 317 500 9
a 317 275 46
a 318 317 23
a 318 499 18
a 319 320 46
a 319 323 9
a 319 321 9
a 320 328 50
a 320 324 6
a 320 322 6
a 321 396 46
a 321 497 11
a 321 319 9
a 322 320 6
a 322 102 7
a 322 321 46
a 323 325 9
a 323 264 45
a 323 319 9
a 324 326 12
a 324 9732 6
a 324 320 6
a 325 7768 24
a 325 323 9
a 325 326 38
a 325 9731 5
a 326 325 38
a 326 323 34
a 327 322 50
a 327 498 11
a 327 328 9
a 328 329 9
a 328 327 9
a 329 330 9
a 329 324 49
a 330 331 11
a 331 1138 32
a 331 2799 56
a 332 8414 2
a 332 115 13
a 332 340 43
a 333 334 12
a 333 723 12
a 334 335 13
a 334 333 12
a 334 337 38
a 335 334 13
a 335 7488 16
a 336 337 9
a 336 7834 11
a 336 335 38
a 336 357 83
a 337 336 9
a 337 338 8
a 337 357 68
a 338 333 40
a 338 339 7
a 338 337 8
a 338 347 43
a 339 348 43
a 339 340 8
a 339 338 7
a 340 341 9
a 340 349 29
a 340 339 8
a 340 332 43
a 341 340 9
a 341 350 29
a 341 115 27
a 341 342 7
a 342 727 38
a 342 351 43
a 342 343 7
a 342 341 7
a 343 724 35
a 343 344 8
a 343 342 7
a 343 352 43
a 344 353 29
a 344 345 8
a 344 343 8
a 344 725 32
a 345 354 43
a 345 726 30
a 345 346 9
a 345 344 8
a 346 345 9
a 346 726 39
a 346 9959 1
a 347 348 11
a 347 2474 45
a 347 338 43
a 348 349 12
a 348 347 11
a 348 2473 45
a 348 339 43
a 349 350 13
a 349 348 12
a 349 12071 30
a 350 349 13
a 350 351 10
a 350 341 29
a 351 342 43
a 351 352 10
a 351 350 10
a 352 351 10
a 352 353 12
a 352 343 43
a 352 2471 44
a 353 344 29
a 353 354 13
a 353 352 12
a 354 398 43
a 354 345 43
a 354 355 13
a 354 353 13
a 355 394 43
a 355 356 12
a 355 354 13
a 355 9959 40
a 356 359 13
a 356 355 12
a 356 2465 28
a 357 397 20
a 357 337 68
a 358 359 12
a 358 256 13
a 359 356 13
a 359 358 12
a 359 2464 42
a 360 7346 32
a 360 359 36
a 360 113 9
a 361 848 8
a 361 2469 49
a 361 256 9
a 362 374 41
a 362 146 6
a 362 363 7
a 363 364 6
a 363 677 42
a 363 362 7
a 364 376 41
a 364 363 6
a 364 365 7
a 365 364 7
a 365 366 7
a 365 673 41
a 366 10080 41
a 366 365 7
a 366 367 7
a 367 366 7
a 367 368 7
a 367 377 41
a 368 367 7
a 368 668 41
a 368 369 7
a 369 378 41
a 369 368 7
a 369 370 7
a 370 371 11
a 370 658 41
a 370 369 7
a 371 370 11
a 371 380 41
a 371 372 11
a 372 373 14
a 372 371 11
a 372 393 14
a 372 7771 14
a 373 372 14
a 373 681 13
a 373 8960 15
a 373 459 33
a 374 375 10
a 374 1042 9
a 374 388 43
a 375 363 41
a 375 376 10
a 375 374 10
a 376 10078 11
a 376 375 10
a 376 390 43
a 377 10079 11
a 377 10080 11
a 377 382 43
a 377 367 41
a 378 379 11
a 378 10079 11
a 378 12200 43
a 379 378 11
a 379 370 41
a 379 380 15
a 380 9865 8
a 380 1540 17
a 380 379 15
a 381 10079 43
a 381 382 7
a 381 1099 7
a 382 381 7
a 382 392 7
a 382 1041 21
a 382 377 43
a 383 384 10
a 383 6 11
a 384 385 10
a 384 389 42
a 384 383 10
a 385 384 10
a 385 386 9
a 386 385 9
a 386 8578 11
a 387 386 22
a 387 388 6
a 387 1032 1
a 388 389 7
a 388 387 6
a 388 385 43
a 389 375 43
a 389 390 6
a 389 388 7
a 390 383 42
a 390 391 7
a 390 389 6
a 391 392 7
a 391 390 7
a 391 10078 43
a 392 382 7
a 392 391 7
a 392 19 32
a 393 661 17
a 393 459 21
a 393 9871 11
a 393 372 14
a 394 355 43
a 394 398 4
a 394 2923 2
a 395 7535 1
a 395 2463 4
a 396 509 46
a 396 79 6
a 396 81 7
a 397 13076 1
a 397 357 20
a 397 7508 10
a 398 354 43
a 398 2466 4
a 399 2757 4
a 399 4260 18
a 399 4023 12
a 399 9382 27
a 400 2757 1
a 400 12546 4
a 400 9719 5
a 401 4042 3
a 401 10910 1
a 401 4092 17
a 402 3316 4
a 402 3775 17
a 402 3832 40
a 403 12814 1
a 403 10154 7
a 403 12815 5
a 404 5141 15
a 404 5146 6
a 404 7885 12
a 404 5147 18
a 405 13145 17
a 405 5146 8
a 405 11333 7
a 406 5425 4
a 406 5541 22
a 407 5407 3
a 407 7802 1
a 407 7567 3
a 408 5495 1
a 409 5421 5
a 409 5495 5
a 409 5415 17
a 410 6305 14
a 410 5490 5
a 410 6309 5
a 411 7156 5
a 411 7111 6
a 411 6361 12
a 412 2535 28
a 412 2540 13
a 412 434 23
a 413 429 8
a 413 2555 8
a 413 423 29
a 413 427 44
a 414 436 13
a 414 437 12
a 415 2541 8
a 415 429 7
a 415 433 28
a 415 2569 33
a 416 430 11
a 416 11022 2
a 417 420 11
a 417 2570 11
a 417 430 23
a 418 428 12
a 418 2551 33
a 418 7335 40
a 419 2817 41
a 419 2545 37
a 419 2550 23
a 420 7335 13
a 420 417 11
a 420 414 48
a 420 428 41
a 421 416 12
a 421 2557 35
a 421 422 19
a 422 8226 14
a 422 432 33
a 422 421 19
a 423 428 11
a 423 8228 11
a 423 413 29
a 424 3557 11
a 424 426 13
a 425 412 14
a 426 10999 9
a 426 9414 8
a 427 413 44
a 427 2556 19
a 427 433 17
a 428 418 12
a 428 423 11
a 428 2823 12
a 429 415 7
a 429 413 8
a 429 433 28
a 429 8228 30
a 430 416 11
a 430 437 30
a 431 2823 10
a 431 2550 13
a 431 2542 41
a 432 2557 11
a 432 3557 39
a 432 422 33
a 433 2540 11
a 433 429 28
a 433 427 17
a 433 415 28
a 434 2541 16
a 434 9408 22
a 434 412 23
a 435 9414 11
a 435 12415 26
a 436 414 13
a 436 12579 16
a 436 7335 43
a 437 8227 26
a 437 414 12
a 438 1534 14
a 438 439 11
a 438 13373 11
a 438 12373 12
a 439 659 10
a 439 442 41
a 439 438 11
a 440 444 41
a 440 659 7
a 440 666 7
a 441 654 7
a 441 666 7
a 441 17 41
a 442 443 16
a 442 12374 12
a 442 660 43
a 443 444 11
a 443 442 16
a 443 659 41
a 444 445 11
a 444 443 11
a 444 664 43
a 445 17 11
a 445 444 11
a 445 666 41
a 446 447 11
a 446 17 10
a 446 653 42
a 447 446 11
a 447 448 11
a 448 449 10
a 448 447 11
a 448 9874 42
a 449 448 10
a 449 1139 10
a 450 9675 14
a 450 451 18
a 450 12367 5
a 451 7439 19
a 451 450 18
a 451 9873 21
a 452 12424 7
a 452 12425 5
a 452 13617 15
a 453 12359 24
a 453 454 14
a 454 455 14
a 454 457 42
a 454 7439 42
a 454 453 14
a 455 456 14
a 455 454 14
a 455 458 28
a 455 1535 28
a 456 9872 7
a 456 455 14
a 456 459 34
a 456 682 34
a 457 458 21
a 457 1536 21
a 457 680 20
a 457 454 42
a 458 459 20
a 458 457 21
a 458 11158 24
a 458 455 28
a 459 393 21
a 459 458 20
a 459 373 33
a 459 456 34
a 460 13442 13
a 460 20 14
a 460 8521 14
a 461 1538 24
a 461 3200 22
a 461 1537 14
a 462 3542 37
a 462 10097 14
a 462 8157 3
a 463 125 23
a 463 12233 63
a 463 10108 18
a 464 133 13
a 465 691 13
a 465 141 13
a 466 3547 2
a 466 9618 38
a 467 468 22
a 467 13361 26
a 467 9603 20
a 467 120 24
a 468 9368 11
a 468 11535 10
a 468 467 22
a 468 12829 22
a 469 7347 2
a 469 133 24
a 469 473 30
a 469 476 17
a 470 13609 26
a 470 122 21
a 470 12302 9
a 471 12828 38
a 471 7336 50
a 471 9201 12
a 472 12734 3
a 472 473 6
a 472 7336 6
a 473 469 30
a 473 472 6
a 473 474 15
a 474 475 21
a 474 473 15
a 474 477 46
a 475 9201 11
a 475 474 21
a 475 477 35
a 476 477 10
a 476 469 17
a 476 9202 38
a 477 476 10
a 477 474 46
a 477 475 35
a 478 10066 21
a 478 1120 6
a 479 7524 1
a 479 484 12
a 480 13071 1
a 480 9377 11
a 480 484 25
a 481 7713 1
a 481 7266 24
a 482 12129 1
a 482 13047 7
a 483 13040 1
a 483 488 6
a 484 9448 1
a 484 10307 6
a 484 480 25
a 485 7719 1
a 485 12454 19
a 485 12744 10
a 486 13032 1
a 487 10982 1
a 487 12566 23
a 488 2466 2
a 488 7530 4
a 489 12131 8
a 489 8930 8
a 490 12409 6
a 490 491 2
a 491 7274 27
a 492 7286 2
a 492 491 7
a 493 11407 4
a 494 6890 26
a 495 496 27
a 495 746 8
a 496 494 22
a 497 321 11
a 497 81 23
a 497 102 23
a 498 327 11
a 498 102 25
a 498 2799 7
a 499 83 7
a 500 317 9
a 500 506 15
a 500 318 25
a 501 90 5
a 501 83 6
a 502 506 29
a 502 503 11
a 503 502 11
a 504 98 6
a 504 501 53
a 504 147 8
a 505 513 9
a 505 11801 6
a 505 502 10
a 506 500 15
a 506 501 50
a 507 508 9
a 507 317 9
a 507 499 39
a 508 79 46
a 508 509 9
a 508 507 9
a 509 316 45
a 509 508 9
a 509 2454 12
a 510 500 11
a 510 1136 23
a 511 510 15
a 511 1136 15
a 512 85 5
a 512 514 5
a 513 515 10
a 513 505 9
a 513 512 81
a 514 512 5
a 514 515 69
a 514 697 52
a 514 89 5
a 515 516 9
a 515 513 10
a 516 515 9
a 516 4470 7
a 517 4470 47
a 517 89 5
a 517 2534 5
a 518 4496 61
a 518 9958 22
a 519 505 13
a 519 4496 27
a 520 524 9
a 520 2531 8
a 521 524 8
a 521 1227 16
a 522 271 4
a 522 7384 4
a 522 523 29
a 523 1227 30
a 523 271 73
a 524 520 9
a 524 521 8
a 524 525 28
a 525 527 8
a 525 2529 9
a 526 521 12
a 526 8077 12
a 527 526 19
a 527 533 12
a 527 525 8
a 527 7243 19
a 528 553 7
a 528 1280 7
a 528 551 34
a 529 1275 3
a 529 528 20
a 530 1275 4
a 530 9489 34
a 530 7384 26
a 531 532 20
a 531 532 38
a 531 9489 14
a 532 4379 7
a 532 531 20
a 532 531 38
a 533 534 11
a 533 4379 9
a 533 1274 19
a 533 527 12
a 534 535 11
a 534 533 11
a 535 534 11
a 535 1238 11
a 535 536 49
a 536 537 9
a 536 535 49
a 536 12518 13
a 537 536 9
a 537 1231 10
a 537 1230 19
a 538 3134 27
a 538 7535 7
a 538 7534 1
a 539 5394 17
a 539 3151 17
a 539 2475 10
a 539 2851 19
a 540 1316 11
a 540 1314 17
a 540 11701 20
a 541 11861 10
a 541 8076 6
a 541 542 16
a 541 1241 11
a 542 1245 80
a 542 543 10
a 542 541 16
a 543 544 8
a 543 7166 34
a 543 542 10
a 544 9479 7
a 544 543 8
a 544 545 47
a 545 9479 1
a 545 8907 22
a 546 2003 7
a 546 549 7
a 546 1246 39
a 547 8071 22
a 547 7167 17
a 547 1245 5
a 547 2003 7
a 548 7161 3
a 548 9052 4
a 548 1242 11
a 549 8081 11
a 549 546 7
a 549 8971 25
a 549 8907 19
a 550 132 12
a 550 8970 13
a 551 562 11
a 551 528 34
a 551 559 10
a 551 552 42
a 552 558 6
a 552 7542 15
a 552 1292 10
a 553 272 8
a 553 528 7
a 553 12148 17
a 554 559 9
a 554 2479 11
a 554 555 11
a 554 553 42
a 555 554 11
a 555 556 26
a 556 1289 7
a 556 274 8
a 556 555 26
a 556 557 21
a 557 7244 14
a 557 556 21
a 557 7512 24
a 558 1290 1
a 558 552 6
a 558 559 37
a 559 551 10
a 559 554 9
a 560 7546 8
a 560 1292 2
a 560 7553 12
a 561 7553 11
a 561 562 24
a 562 551 11
a 562 561 24
a 562 563 25
a 562 564 16
a 563 1280 1
a 563 562 25
a 563 1279 6
a 564 565 9
a 564 7551 16
a 565 1274 14
a 565 1239 10
a 565 534 27
a 566 567 17
a 566 1141 24
a 566 92 47
a 566 3027 55
a 567 315 48
a 567 11231 62
a 567 568 16
a 567 566 17
a 568 259 47
a 568 3098 66
a 568 2988 16
a 568 567 16
a 569 307 50
a 569 299 50
a 569 305 11
a 570 597 7
a 570 307 63
a 570 580 5
a 571 596 5
a 571 591 45
a 571 597 7
a 572 1081 16
a 572 591 20
a 572 590 53
a 573 1072 7
a 573 1075 4
a 573 8179 14
a 574 8678 21
a 574 3105 25
a 574 3002 20
a 575 312 12
a 575 301 50
a 576 2855 3
a 576 2952 9
a 576 3317 44
a 577 575 8
a 577 3317 19
a 578 1777 1
a 578 74 21
a 578 2855 8
a 579 596 9
a 579 594 1
a 579 1081 28
a 580 11004 35
a 580 570 5
a 580 1098 10
a 580 12479 11
a 581 586 30
a 581 582 18
a 581 3031 12
a 582 2904 23
a 582 583 28
a 582 581 18
a 582 587 52
a 583 587 12
a 583 2904 15
a 583 584 15
a 583 582 28
a 584 585 18
a 584 583 15
a 584 3053 33
a 585 8915 43
a 585 2986 11
a 585 584 18
a 586 581 30
a 586 2904 15
a 586 3053 15
a 587 583 12
a 587 582 52
a 587 2423 52
a 588 3008 9
a 588 2952 3
a 588 589 44
a 589 8677 19
a 589 3317 18
a 589 588 44
a 590 311 19
a 590 1080 16
a 590 572 53
a 590 8677 19
a 591 308 18
a 591 571 45
a 591 572 20
a 592 593 27
a 592 594 12
a 592 1072 15
a 593 1081 19
a 593 1080 35
a 593 592 27
a 594 579 1
a 594 595 19
a 594 592 12
a 595 9804 22
a 595 594 19
a 595 1074 39
a 596 571 5
a 596 579 9
a 596 9803 40
a 597 570 7
a 597 1098 19
a 597 571 7
a 598 1496 6
a 598 617 17
a 599 613 49
a 599 617 33
a 599 605 17
a 599 610 17
a 600 607 11
a 600 601 27
a 600 615 12
a 601 602 31
a 601 600 27
a 601 616 33
a 602 601 31
a 602 12217 35
a 602 2430 12
a 602 743 16
a 602 744 38
a 603 1545 33
a 603 1562 12
a 603 1544 7
a 604 605 36
a 604 618 12
a 604 617 17
a 605 13438 11
a 605 604 36
a 605 599 17
a 605 8923 26
a 606 13438 37
a 606 613 8
a 606 607 37
a 606 7644 9
a 607 616 3
a 607 600 11
a 607 606 37
a 608 618 17
a 608 1502 4
a 608 598 8
a 609 745 19
a 609 8924 24
a 609 611 14
a 609 623 27
a 610 8036 18
a 610 599 17
a 611 7642 14
a 611 740 38
a 611 614 13
a 611 609 14
a 612 613 9
a 612 3068 19
a 612 2431 4
a 612 3138 3
a 613 599 49
a 613 606 8
a 613 612 9
a 613 600 38
a 614 626 9
a 614 12728 9
a 614 7644 9
a 614 611 13
a 615 1552 12
a 615 600 12
a 615 2434 5
a 615 2430 25
a 616 625 11
a 616 607 3
a 616 8100 15
a 616 601 33
a 617 599 33
a 617 604 17
a 617 598 17
a 618 608 17
a 618 604 12
a 618 7643 44
a 618 627 38
a 619 624 11
a 619 1495 12
a 619 627 28
a 619 620 56
a 620 3338 20
a 620 1492 17
a 621 13409 1
a 622 745 42
a 622 3338 22
a 622 623 23
a 622 8929 20
a 623 609 27
a 623 624 15
a 623 622 23
a 623 8926 17
a 624 619 11
a 624 623 15
a 624 7432 12
a 624 3338 41
a 625 616 11
a 625 12215 13
a 625 742 16
a 625 12488 18
a 626 614 9
a 626 12488 32
a 626 741 12
a 627 619 28
a 627 618 38
a 627 9945 27
a 628 45 11
a 628 637 7
a 628 629 26
a 629 648 7
a 629 9800 11
a 629 630 52
a 630 636 7
a 630 10 11
a 630 631 47
a 631 635 5
a 631 9798 45
a 631 11 7
a 632 633 8
a 632 1140 21
a 632 11866 11
a 633 632 8
a 633 634 42
a 633 643 7
a 634 9798 5
a 634 642 5
a 634 635 45
a 635 636 47
a 635 631 5
a 635 641 5
a 636 648 52
a 636 640 7
a 636 630 7
a 637 628 7
a 637 638 8
a 638 637 8
a 638 8453 24
a 639 640 52
a 639 8453 3
a 639 648 7
a 640 641 47
a 640 645 7
a 640 636 7
a 641 647 5
a 641 642 45
a 641 635 5
a 642 634 5
a 642 646 5
a 642 643 41
a 643 644 9
a 643 633 7
a 644 646 34
a 644 9877 11
a 644 643 9
a 645 640 7
a 645 639 55
a 645 651 7
a 646 649 5
a 646 642 5
a 646 647 45
a 647 650 5
a 647 641 5
a 647 645 48
a 648 637 26
a 648 629 7
a 648 639 7
a 649 646 5
a 649 9877 27
a 649 1071 6
a 650 1043 8
a 650 647 5
a 650 649 45
a 651 650 48
a 651 645 7
a 652 669 11
a 652 673 11
a 652 366 41
a 653 18 5
a 653 674 5
a 653 652 42
a 654 446 41
a 654 11658 6
a 654 441 7
a 655 654 41
a 655 10 7
a 655 9 7
a 656 670 39
a 656 48 12
a 657 660 8
a 657 664 5
a 657 443 42
a 658 663 11
a 658 661 16
a 658 657 42
a 659 440 7
a 659 439 10
a 659 50 41
a 660 8669 3
a 660 657 8
a 660 661 42
a 661 393 17
a 661 658 16
a 661 371 41
a 662 9949 1
a 662 8061 7
a 662 439 41
a 663 658 11
a 663 668 11
a 663 369 41
a 664 663 42
a 664 657 5
a 664 667 5
a 665 49 7
a 665 9948 6
a 665 440 41
a 666 441 7
a 666 49 41
a 666 440 7
a 667 18 5
a 667 445 42
a 667 664 5
a 668 663 11
a 668 669 11
a 668 667 42
a 669 668 11
a 669 652 11
a 669 367 41
a 670 671 18
a 670 672 19
a 671 9 5
a 671 49 3
a 672 656 34
a 672 670 19
a 673 652 11
a 673 675 11
a 673 674 42
a 674 653 5
a 674 447 42
a 674 9874 6
a 675 673 11
a 675 677 10
a 675 364 42
a 676 9874 5
a 676 678 5
a 676 449 42
a 677 675 10
a 677 679 10
a 677 676 42
a 678 679 42
a 678 676 5
a 678 16 4
a 679 677 10
a 679 362 42
a 679 252 9
a 680 11107 16
a 680 457 20
a 680 1536 19
a 681 11158 4
a 681 11107 4
a 681 373 13
a 681 2453 14
a 681 8960 18
a 682 9795 21
a 682 1535 20
a 682 456 34
a 682 1534 33
a 683 685 1
a 683 7706 4
a 684 9357 4
a 684 7357 13
a 685 8 2
a 685 683 1
a 685 7769 4
a 686 4480 10
a 686 105 12
a 687 111 8
a 687 689 7
a 687 690 61
a 688 116 10
a 688 9350 29
a 689 687 7
a 689 3288 8
a 690 689 49
a 690 106 13
a 691 7160 45
a 691 465 13
a 691 111 11
a 692 11150 3
a 692 11696 1
a 693 11696 7
a 693 11698 1
a 693 694 46
a 694 13022 9
a 694 7160 10
a 695 4386 2
a 695 13020 3
a 696 720 9
a 696 697 9
a 696 512 70
a 697 696 9
a 697 721 11
a 698 100 27
a 698 701 1
a 699 698 6
a 700 699 8
a 701 698 1
a 701 257 4
a 701 2562 8
a 702 700 30
a 702 700 39
a 703 708 27
a 703 704 15
a 704 705 34
a 704 84 8
a 705 708 5
a 705 704 34
a 705 704 17
a 706 712 8
a 706 714 9
a 706 9429 22
a 707 9429 23
a 707 714 5
a 707 100 6
a 708 709 8
a 708 705 5
a 708 703 27
a 709 710 8
a 709 708 8
a 709 722 25
a 710 709 8
a 710 711 21
a 710 712 8
a 711 710 21
a 711 722 9
a 712 706 8
a 712 713 13
a 712 710 8
a 713 712 13
a 714 706 9
a 714 78 24
a 714 707 5
a 715 251 10
a 715 716 10
a 716 718 33
a 716 719 10
a 717 2534 24
a 718 720 6
a 718 98 7
a 718 717 29
a 719 254 31
a 720 696 9
a 720 254 9
a 720 718 6
a 720 719 27
a 721 697 11
a 721 717 9
a 722 709 25
a 722 703 9
a 723 339 43
a 723 333 12
a 723 8414 11
a 724 343 35
a 724 727 11
a 724 725 12
a 725 726 13
a 725 344 32
a 725 724 12
a 726 345 30
a 726 346 39
a 726 725 13
a 727 342 38
a 727 724 11
a 727 115 11
a 728 9701 1
a 729 151 1
a 729 10828 20
a 730 11356 1
a 730 10373 1
a 731 10819 4
a 731 9892 2
a 732 8430 2
a 732 1219 21
a 733 8435 2
a 733 732 12
a 734 9067 4
a 734 10752 8
a 735 12408 1
a 735 10819 2
a 736 9199 5
a 736 1487 23
a 737 743 2
a 737 1486 17
a 737 1481 6
a 738 4832 21
a 738 8822 13
a 739 745 20
a 739 8750 12
a 740 611 38
a 740 8176 4
a 741 626 12
a 741 740 7
a 742 625 16
a 742 11352 5
a 743 737 2
a 743 602 16
a 743 8174 14
a 744 8037 1
a 744 602 38
a 745 609 19
a 745 622 42
a 745 739 20
a 746 121 2
a 746 13611 4
a 747 7508 1
a 747 12834 1
a 748 3018 5
a 748 7533 13
a 749 12464 1
a 750 13417 25
a 751 9372 19
a 751 494 61
a 752 112 30
a 752 185 2
a 752 189 16
a 753 9348 2
a 753 13083 11
a 753 4778 36
a 754 8379 2
a 754 11950 3
a 755 756 27
a 755 13277 20
a 755 769 60
a 756 757 25
a 756 755 27
a 756 769 58
a 757 13285 1
a 757 11041 32
a 757 756 25
a 758 13377 36
a 758 11041 59
a 758 773 48
a 759 13275 24
a 759 11210 23
a 759 760 85
a 760 9857 16
a 760 762 13
a 760 761 24
a 760 759 85
a 761 764 77
a 761 13275 102
a 761 768 28
a 761 760 24
a 762 763 21
a 762 760 13
a 762 10811 90
a 763 762 21
a 763 772 14
a 763 10809 89
a 764 761 77
a 764 10811 22
a 764 771 21
a 765 766 5
a 765 13379 30
a 765 8503 22
a 766 11411 21
a 766 13423 22
a 766 765 5
a 767 768 33
a 767 770 8
a 767 771 9
a 768 11041 28
a 768 761 28
a 768 769 26
a 768 767 33
a 769 756 58
a 769 755 60
a 769 768 26
a 770 13592 9
a 770 771 6
a 770 767 8
a 771 770 6
a 771 764 21
a 771 767 9
a 772 763 14
a 773 758 48
a 774 13378 41
a 774 11002 10
a 774 8502 24
a 775 776 9
a 775 777 7
a 776 775 9
a 777 775 7
a 777 7948 3
a 778 11828 34
a 778 779 2
a 778 7948 70
a 779 12309 1
a 779 13279 1
a 779 778 2
a 780 9859 17
a 780 7503 9
a 780 12308 11
a 781 8500 16
a 781 782 7
a 781 7503 44
a 782 9858 22
a 782 12439 18
a 782 781 7
a 783 8505 3
a 783 9860 44
a 783 8508 3
a 784 9814 10
a 784 9358 7
a 784 8505 108
a 785 8138 1
a 785 8988 6
a 786 8138 1
a 786 8043 3
a 786 785 1
a 787 8137 2
a 787 8580 3
a 788 12235 14
a 788 803 14
a 788 789 19
a 789 795 37
a 789 790 26
a 789 788 19
a 790 791 14
a 790 795 23
a 790 789 26
a 791 790 14
a 791 11821 11
a 791 801 16
a 792 11818 2
a 792 801 73
a 793 794 54
a 793 794 21
a 793 812 36
a 794 793 54
a 794 793 21
a 794 11819 6
a 795 796 12
a 795 789 37
a 795 790 23
a 796 795 12
a 797 798 28
a 797 11821 13
a 797 800 18
a 798 11379 14
a 798 799 46
a 798 797 28
a 799 800 13
a 799 798 46
a 799 802 27
a 800 11379 12
a 800 801 27
a 800 799 13
a 800 797 18
a 801 800 27
a 801 792 73
a 801 791 16
a 802 799 27
a 803 803 9
a 803 788 14
a 804 807 56
a 804 814 14
a 804 829 71
a 805 11816 4
a 805 11817 4
a 805 11815 18
a 806 810 15
a 806 11817 66
a 806 809 15
a 807 11815 4
a 807 808 4
a 807 804 56
a 808 11815 4
a 808 809 36
a 809 806 15
a 809 808 36
a 809 9985 7
a 810 806 15
a 810 829 32
a 810 812 14
a 811 818 19
a 811 812 33
a 811 817 18
a 812 810 14
a 812 811 33
a 812 818 20
a 812 793 36
a 813 814 34
a 814 827 26
a 814 813 34
a 814 804 14
a 815 7014 4
a 816 11380 26
a 816 11299 23
a 816 12730 3
a 817 4817 8
a 817 811 18
a 817 11380 19
a 818 811 19
a 818 812 20
a 818 4815 70
a 818 840 22
a 819 8019 11
a 819 820 10
a 819 3568 46
a 820 821 48
a 820 819 10
a 821 820 48
a 822 9579 4
a 822 13276 25
a 823 824 39
a 823 11380 45
a 823 2301 4
a 824 823 39
a 825 2304 20
a 825 2305 7
a 826 11232 30
a 826 2303 6
a 826 2304 23
a 827 835 12
a 827 831 13
a 827 12034 5
a 827 814 26
a 828 833 41
a 828 4810 28
a 828 831 12
a 829 830 22
a 829 810 32
a 829 804 71
a 830 829 22
a 831 827 13
a 831 832 59
a 831 828 12
a 832 4813 10
a 832 831 59
a 832 833 12
a 833 828 41
a 833 4814 13
a 833 832 12
a 834 4810 12
a 834 11739 46
a 834 838 41
a 834 837 13
a 835 7014 48
a 835 827 12
a 835 836 12
a 836 835 12
a 836 4811 12
a 836 837 27
a 837 834 13
a 837 836 27
a 837 839 41
a 838 4814 12
a 838 834 41
a 838 4815 9
a 839 4809 24
a 839 4811 12
a 839 837 41
a 840 4816 13
a 840 11484 15
a 840 818 22
a 841 11484 25
a 842 845 13
a 842 8045 11
a 842 844 18
a 843 845 4
a 844 8044 17
a 844 842 18
a 844 845 26
a 845 843 4
a 845 842 13
a 845 844 26
a 846 847 28
a 846 4817 19
a 846 4816 32
a 847 8045 11
a 847 4817 17
a 847 846 28
a 848 361 8
a 848 849 9
a 849 2467 45
a 849 848 9
a 849 850 9
a 850 2463 43
a 850 849 9
a 850 851 9
a 851 395 28
a 851 850 9
a 852 10006 3
a 853 8515 4
a 854 855 12
a 855 9443 9
a 856 10803 12
a 857 9667 14
a 857 13415 1
a 858 2106 19
a 858 891 17
a 858 7044 6
a 859 10990 2
a 859 8349 9
a 860 2632 7
a 860 12600 10
a 861 2186 15
a 861 12067 8
a 862 39 1
a 862 7568 25
a 863 2189 5
a 863 9670 9
a 864 2195 10
a 864 2620 8
a 865 868 2
a 865 2747 9
a 865 3736 12
a 866 7630 1
a 866 2760 3
a 867 866 1
a 867 7938 2
a 868 7404 1
a 868 865 2
a 869 7401 3
a 869 9783 42
a 870 7211 9
a 871 875 6
a 871 12094 8
a 871 872 44
a 872 2186 10
a 872 874 15
a 872 871 44
a 873 9658 10
a 873 874 28
a 873 9662 21
a 874 2186 23
a 874 873 28
a 874 872 15
a 875 871 6
a 875 876 10
a 875 880 35
a 876 875 10
a 876 7036 9
a 876 9658 64
a 877 881 9
a 877 880 10
a 877 882 52
a 878 9652 9
a 878 881 10
a 878 883 52
a 879 11349 42
a 879 885 10
a 880 2776 6
a 880 877 10
a 880 2629 9
a 880 875 35
a 881 878 10
a 881 877 9
a 882 875 10
a 882 877 52
a 883 884 10
a 884 882 9
a 884 881 52
a 885 2104 9
a 885 13404 28
a 886 889 9
a 886 2108 9
a 886 11109 20
a 886 7031 10
a 887 2631 22
a 887 2776 15
a 887 888 19
a 888 887 19
a 888 890 10
a 888 891 9
a 888 7041 51
a 889 886 9
a 889 892 9
a 889 7041 24
a 890 888 10
a 890 9808 26
a 890 9293 23
a 891 888 9
a 891 858 17
a 891 2776 7
a 892 893 11
a 892 889 9
a 892 8828 9
a 892 7017 33
a 893 892 11
a 893 2102 14
a 893 2103 23
a 894 9863 11
a 895 13153 1
a 895 9619 12
a 895 9035 29
a 896 9729 21
a 896 2049 7
a 896 11122 28
a 896 2045 8
a 897 2046 11
a 897 7261 15
a 897 4005 39
a 898 11882 1
a 899 907 22
a 899 902 9
a 899 11882 17
a 900 9648 21
a 900 905 20
a 900 906 59
a 901 10001 1
a 901 894 10
a 901 8450 25
a 902 908 11
a 902 10293 49
a 902 899 9
a 903 906 21
a 903 9953 29
a 903 10293 21
a 904 7232 12
a 904 905 33
a 904 9953 37
a 905 900 20
a 905 7231 21
a 905 904 33
a 906 903 21
a 906 900 59
a 906 9646 19
a 907 899 22
a 907 9648 42
a 907 9646 33
a 908 9709 30
a 908 10294 53
a 908 902 11
a 909 910 16
a 909 3206 30
a 910 911 50
a 910 7832 17
a 911 913 14
a 911 914 22
a 912 10076 7
a 912 915 18
a 913 911 14
a 913 10076 12
a 913 7832 24
a 914 911 22
a 915 909 50
a 915 912 18
a 915 10077 18
a 916 2072 39
a 916 917 23
a 916 13153 34
a 917 2071 36
a 917 918 16
a 917 916 23
a 918 2070 8
a 918 2069 24
a 918 919 38
a 918 917 16
a 919 938 12
a 919 922 14
a 919 2069 17
a 919 918 38
a 920 7855 11
a 920 962 4
a 920 3158 11
a 920 2022 9
a 921 2071 9
a 921 2072 16
a 921 2066 16
a 921 8454 11
a 922 937 8
a 922 923 10
a 922 8168 5
a 922 919 14
a 923 922 10
a 924 3553 10
a 924 947 11
a 924 953 27
a 924 954 37
a 925 3551 16
a 925 926 18
a 925 7263 21
a 926 11214 16
a 926 3129 2
a 926 925 18
a 927 3550 13
a 927 11214 16
a 927 3535 47
a 927 3567 27
a 928 936 8
a 928 2773 8
a 928 939 27
a 928 941 17
a 929 936 8
a 929 8172 4
a 929 8171 4
a 929 930 13
a 930 929 13
a 931 932 14
a 932 934 8
a 932 931 14
a 932 8448 4
a 932 8172 4
a 933 951 11
a 933 943 8
a 933 949 17
a 933 950 9
a 934 936 17
a 934 935 16
a 934 941 8
a 934 932 8
a 935 934 16
a 936 929 8
a 936 928 8
a 936 937 27
a 936 934 17
a 937 939 8
a 937 922 8
a 937 936 27
a 937 938 30
a 938 940 8
a 938 937 30
a 938 919 12
a 939 945 8
a 939 937 8
a 939 928 27
a 939 940 32
a 940 939 32
a 940 938 8
a 940 10292 2
a 941 942 15
a 941 943 8
a 941 934 8
a 941 928 17
a 942 941 15
a 943 2773 17
a 943 944 14
a 943 933 8
a 943 941 8
a 944 943 14
a 945 947 8
a 945 939 8
a 945 946 34
a 945 2773 27
a 946 945 34
a 946 10292 6
a 946 948 8
a 947 924 11
a 947 945 8
a 947 948 35
a 947 949 27
a 948 946 8
a 948 954 13
a 948 947 35
a 948 2067 42
a 949 2773 8
a 949 953 11
a 949 947 27
a 949 933 17
a 950 933 9
a 951 953 17
a 951 952 27
a 951 933 11
a 952 951 27
a 953 949 11
a 953 3550 10
a 953 924 27
a 953 951 17
a 954 955 25
a 954 948 13
a 954 958 9
a 954 924 37
a 955 954 25
a 955 9729 8
a 955 956 17
a 955 2066 23
a 956 957 20
a 956 955 17
a 956 7263 17
a 957 956 20
a 957 958 7
a 957 3567 34
a 958 954 9
a 958 957 7
a 958 3553 35
a 959 9035 9
a 959 964 9
a 959 974 17
a 959 9619 23
a 960 961 6
a 960 1014 6
a 960 1019 9
a 961 960 6
a 961 963 9
a 961 1020 6
a 962 1017 13
a 962 961 12
a 963 9036 9
a 963 1015 4
a 963 961 9
a 964 959 9
a 964 975 16
a 964 11889 9
a 965 966 17
a 965 9035 9
a 965 994 8
a 965 1010 8
a 966 983 8
a 966 965 17
a 966 1009 8
a 966 1001 9
a 967 1005 17
a 967 968 16
a 967 1003 11
a 968 991 11
a 968 972 25
a 968 11880 1
a 968 967 16
a 969 992 9
a 969 991 7
a 969 989 28
a 969 993 25
a 970 1006 10
a 970 992 9
a 970 997 12
a 970 976 35
a 971 973 9
a 971 1022 9
a 971 1010 8
a 971 1013 10
a 972 1005 4
a 972 968 25
a 972 986 26
a 972 1016 29
a 973 971 9
a 973 9035 11
a 973 974 9
a 973 1020 11
a 974 1019 14
a 974 959 17
a 974 975 9
a 974 973 9
a 975 1018 12
a 975 964 16
a 975 12349 18
a 975 974 9
a 976 990 7
a 976 970 35
a 976 11888 48
a 977 997 12
a 977 982 9
a 977 981 9
a 977 978 22
a 978 1007 8
a 978 995 8
a 978 977 22
a 979 8163 11
a 979 11888 2
a 979 980 9
a 980 981 12
a 980 979 9
a 980 1008 27
a 981 977 9
a 981 980 12
a 981 1007 24
a 981 1006 17
a 982 983 9
a 982 977 9
a 982 996 15
a 982 995 20
a 983 966 8
a 983 982 9
a 983 994 18
a 983 993 17
a 984 1022 9
a 984 1000 9
a 984 1009 8
a 984 985 11
a 985 1012 9
a 985 1011 3
a 985 984 11
a 986 972 26
a 986 1016 14
a 986 1021 38
a 987 988 7
a 987 11880 34
a 987 11880 47
a 988 989 7
a 988 987 7
a 988 991 31
a 989 990 8
a 989 969 28
a 989 988 7
a 990 976 7
a 990 989 8
a 990 992 32
a 991 969 7
a 991 968 11
a 991 988 31
a 992 970 9
a 992 969 9
a 992 990 32
a 993 983 17
a 993 969 25
a 993 998 11
a 993 996 8
a 994 983 18
a 994 995 9
a 994 965 8
a 995 978 8
a 995 994 9
a 995 982 20
a 996 982 15
a 996 993 8
a 996 997 8
a 997 977 12
a 997 970 12
a 997 996 8
a 998 1003 8
a 998 1001 9
a 998 999 16
a 998 993 11
a 999 1000 9
a 999 1004 8
a 999 998 16
a 999 12017 6
a 1000 984 9
a 1000 999 9
a 1000 1002 10
a 1000 1001 16
a 1001 998 9
a 1001 966 9
a 1001 1000 16
a 1002 1000 10
a 1003 1004 16
a 1003 998 8
a 1003 967 11
a 1004 999 8
a 1004 1005 8
a 1004 1003 16
a 1004 9034 51
a 1005 1004 8
a 1005 972 4
a 1005 967 17
a 1006 11888 15
a 1006 970 10
a 1006 981 17
a 1007 1008 13
a 1007 978 8
a 1007 981 24
a 1008 1007 13
a 1008 980 27
a 1008 8665 6
a 1009 1010 17
a 1009 984 8
a 1009 966 8
a 1010 1009 17
a 1010 965 8
a 1010 971 8
a 1011 985 3
a 1012 1013 8
a 1012 985 9
a 1012 1022 11
a 1012 9034 9
a 1013 1012 8
a 1013 971 10
a 1013 9036 8
a 1014 960 6
a 1014 7855 5
a 1014 1018 9
a 1014 7297 6
a 1015 1017 16
a 1015 1021 4
a 1015 963 4
a 1016 986 14
a 1016 8161 25
a 1016 972 29
a 1017 1015 16
a 1017 962 13
a 1017 11195 24
a 1018 1019 9
a 1018 1014 9
a 1018 975 12
a 1018 7854 11
a 1019 1020 9
a 1019 1018 9
a 1019 960 9
a 1019 974 14
a 1020 9036 9
a 1020 1019 9
a 1020 973 11
a 1020 961 6
a 1021 9034 10
a 1021 1015 4
a 1021 986 38
a 1022 971 9
a 1022 984 9
a 1022 1012 11
a 1023 1024 41
a 1023 8053 6
a 1024 1026 11
a 1024 9744 10
a 1025 8974 7
a 1025 146 1
a 1025 7693 7
a 1026 252 2
a 1026 1024 11
a 1026 11937 7
a 1027 1030 7
a 1027 8057 1
a 1028 1042 2
a 1028 7650 10
a 1028 1025 20
a 1029 1031 11
a 1029 8049 13
a 1029 1033 28
a 1030 8974 7
a 1030 1027 7
a 1031 1029 11
a 1031 9886 42
a 1031 7650 20
a 1031 1027 41
a 1032 9886 20
a 1032 387 1
a 1032 1028 21
a 1033 3022 6
a 1033 7690 22
a 1033 9886 7
a 1033 1029 28
a 1034 3132 5
a 1034 1035 11
a 1034 8054 10
a 1034 9022 19
a 1035 1034 11
a 1035 9743 22
a 1035 7560 15
a 1036 1037 18
a 1036 8058 27
a 1037 8060 8
a 1037 1035 32
a 1037 9743 40
a 1037 1036 18
a 1038 8060 25
a 1038 8055 22
a 1038 8058 15
a 1039 1040 19
a 1039 7863 13
a 1040 12451 1
a 1040 4 46
a 1040 10025 14
a 1041 19 10
a 1041 1099 19
a 1041 382 21
a 1042 1028 2
a 1042 387 21
a 1042 374 9
a 1043 650 8
a 1043 7574 5
a 1043 1044 10
a 1043 8453 114
a 1044 1048 3
a 1044 1043 10
a 1044 1047 29
a 1045 1057 16
a 1045 1059 18
a 1045 1046 25
a 1046 11190 6
a 1046 1045 25
a 1046 1059 16
a 1047 1052 21
a 1047 1044 29
a 1048 1044 3
a 1048 9801 11
a 1048 1049 68
a 1049 9793 17
a 1049 1051 12
a 1049 1050 56
a 1050 3067 8
a 1050 1070 11
a 1050 3145 52
a 1051 1049 12
a 1051 1053 12
a 1051 1047 52
a 1052 1054 23
a 1052 1047 21
a 1052 1053 40
a 1053 1051 12
a 1053 1055 13
a 1053 1052 40
a 1053 1066 56
a 1054 1057 16
a 1054 1052 23
a 1054 1055 30
a 1055 1053 13
a 1055 1058 13
a 1055 1056 57
a 1056 1063 7
a 1056 1065 13
a 1056 1066 10
a 1057 1045 16
a 1057 1054 16
a 1058 1057 25
a 1058 1055 13
a 1058 1059 13
a 1059 1058 13
a 1059 1061 17
a 1059 1045 18
a 1059 1046 16
a 1060 1061 15
a 1060 12169 18
a 1060 1062 12
a 1061 1059 17
a 1061 1062 8
a 1061 1060 15
a 1062 1061 8
a 1062 12891 1
a 1062 1060 12
a 1063 1056 7
a 1063 1065 14
a 1063 12169 8
a 1063 1069 10
a 1064 1067 16
a 1064 1066 36
a 1065 1064 23
a 1066 3067 7
a 1066 1056 10
a 1066 1064 36
a 1066 1053 56
a 1067 2932 7
a 1067 7265 4
a 1068 3145 11
a 1068 1070 26
a 1068 2436 7
a 1068 2976 20
a 1069 1063 10
a 1069 7315 9
a 1070 8973 14
a 1070 2884 30
a 1070 1068 26
a 1070 1050 11
a 1071 9055 24
a 1071 649 6
a 1071 7575 6
a 1072 1074 20
a 1072 573 7
a 1072 592 15
a 1073 2926 9
a 1073 1074 16
a 1073 1076 12
a 1074 1072 20
a 1074 1073 16
a 1074 595 39
a 1075 573 4
a 1075 1076 31
a 1075 11938 9
a 1076 11869 42
a 1076 1075 31
a 1076 1073 12
a 1076 1078 12
a 1077 11869 1
a 1077 2901 18
a 1077 2858 30
a 1077 3013 16
a 1078 3008 30
a 1078 1076 12
a 1078 2953 18
a 1078 2901 43
a 1079 9804 33
a 1079 2858 31
a 1079 11870 15
a 1079 2926 6
a 1080 8179 14
a 1080 590 16
a 1080 593 35
a 1081 593 19
a 1081 572 16
a 1081 579 28
a 1082 12480 64
a 1082 9419 5
a 1082 9805 9
a 1083 12480 1
a 1083 9419 31
a 1084 1086 32
a 1084 1087 12
a 1085 8644 1
a 1085 11070 14
a 1085 1084 23
a 1086 1088 12
a 1086 1091 4
a 1087 1090 12
a 1088 1087 32
a 1088 1086 12
a 1088 1089 13
a 1089 7560 7
a 1089 1088 13
a 1090 1089 30
a 1090 7560 29
a 1091 1092 61
a 1091 1086 4
a 1091 93 24
a 1092 1091 61
a 1092 93 16
a 1092 22 6
a 1093 3329 1
a 1093 9687 13
a 1094 97 12
a 1094 1567 12
a 1095 1094 34
a 1095 94 11
a 1096 97 36
a 1096 1571 46
a 1097 1096 39
a 1097 94 4
a 1097 3318 6
a 1098 597 19
a 1098 580 10
a 1098 9803 10
a 1099 1041 19
a 1099 12200 1
a 1099 381 7
a 1099 1541 14
a 1100 1579 2
a 1100 1642 18
a 1100 1639 14
a 1101 2777 10
a 1101 11587 18
a 1102 8420 1
a 1102 8512 2
a 1103 11288 1
a 1103 13097 1
a 1104 1146 41
a 1104 1179 6
a 1104 1149 6
a 1104 1147 21
a 1105 1193 13
a 1105 1466 9
a 1105 1516 10
a 1105 8094 6
a 1106 1485 14
a 1106 12155 4
a 1106 1427 7
a 1106 2462 12
a 1107 1206 7
a 1107 1386 10
a 1107 1423 8
a 1107 1421 9
a 1108 1380 1
a 1108 8369 4
a 1109 8369 10
a 1109 2459 9
a 1109 1333 15
a 1110 1464 9
a 1110 1514 4
a 1110 1193 15
a 1110 1114 15
a 1111 1405 29
a 1111 1436 8
a 1111 1207 7
a 1111 1439 34
a 1112 11035 7
a 1112 1437 7
a 1112 1200 13
a 1112 1439 28
a 1113 1342 29
a 1113 1341 29
a 1113 1354 9
a 1113 1338 8
a 1114 1463 13
a 1114 1504 6
a 1114 1110 15
a 1114 1116 15
a 1115 1483 18
a 1115 13472 10
a 1115 1210 20
a 1116 2456 7
a 1116 1114 15
a 1116 1786 15
a 1116 1511 3
a 1117 1482 8
a 1117 1790 20
a 1117 3179 9
a 1117 13472 10
a 1118 1461 14
a 1118 253 15
a 1118 1779 15
a 1118 1375 3
a 1119 9354 9
a 1119 1186 9
a 1119 1392 18
a 1119 1383 17
a 1120 2436 8
a 1121 1122 26
a 1121 1135 11
a 1121 1131 9
a 1122 1121 26
a 1122 1125 3
a 1122 10284 6
a 1123 1124 25
a 1123 1131 7
a 1123 1127 11
a 1124 1126 3
a 1124 1123 25
a 1124 1125 4
a 1125 1122 3
a 1125 1132 34
a 1125 1124 4
a 1126 1124 3
a 1126 1127 10
a 1126 1133 41
a 1127 2960 4
a 1127 1126 10
a 1127 2998 47
a 1127 1123 11
a 1128 10063 1
a 1128 3093 5
a 1128 1134 24
a 1129 1134 7
a 1129 3093 10
a 1130 13075 2
a 1130 1131 12
a 1131 1121 9
a 1131 1123 7
a 1131 1130 12
a 1132 1125 34
a 1132 1133 24
a 1132 3048 12
a 1133 1126 41
a 1133 2998 58
a 1133 1132 24
a 1134 1130 6
a 1134 1128 24
a 1135 1121 11
a 1135 10284 24
a 1135 12282 15
a 1136 1137 6
a 1136 511 15
a 1136 510 23
a 1137 1136 6
a 1138 9732 25
a 1138 330 25
a 1139 678 42
a 1139 261 14
a 1139 449 10
a 1140 11941 9
a 1140 632 21
a 1140 9877 38
a 1141 8644 6
a 1141 566 24
a 1142 2441 58
a 1142 9947 3
a 1143 4778 16
a 1143 7773 2
a 1143 11184 32
a 1144 11090 54
a 1144 11290 17
a 1145 1653 5
a 1145 1337 22
a 1145 1339 6
a 1145 8167 18
a 1146 1104 41
a 1146 1180 3
a 1147 1178 11
a 1147 1148 9
a 1147 1104 21
a 1148 1147 9
a 1148 1149 26
a 1148 8094 14
a 1148 1151 18
a 1149 1104 6
a 1149 1152 6
a 1149 1150 41
a 1149 1148 26
a 1150 1146 3
a 1150 1149 41
a 1151 1155 5
a 1151 1512 13
a 1151 1148 18
a 1151 1152 25
a 1152 1153 41
a 1152 1149 6
a 1152 1154 6
a 1152 1151 25
a 1153 1152 41
a 1153 1150 3
a 1154 1156 41
a 1154 1155 21
a 1154 1152 6
a 1154 1157 6
a 1155 1154 21
a 1155 1151 5
a 1155 1158 10
a 1156 1154 41
a 1156 1153 3
a 1157 1159 41
a 1157 1158 16
a 1157 1154 6
a 1157 1161 6
a 1158 1157 16
a 1158 1155 10
a 1158 1211 11
a 1159 1157 41
a 1159 1156 3
a 1160 1508 25
a 1160 1211 15
a 1160 1507 6
a 1160 1163 6
a 1161 1211 11
a 1161 1162 41
a 1161 1157 6
a 1161 1164 5
a 1162 1161 41
a 1162 1159 3
a 1163 1164 21
a 1163 1525 25
a 1163 1160 6
a 1163 1166 6
a 1164 1163 21
a 1164 1161 5
a 1164 1167 5
a 1164 1165 41
a 1165 1162 3
a 1165 1164 41
a 1166 1524 25
a 1166 1167 17
a 1166 1163 6
a 1166 1169 6
a 1167 1166 17
a 1167 1168 41
a 1167 1164 5
a 1167 1170 5
a 1168 1167 41
a 1168 1165 3
a 1169 1379 25
a 1169 1170 13
a 1169 1166 6
a 1169 1172 6
a 1170 1169 13
a 1170 1171 41
a 1170 1167 5
a 1170 1173 5
a 1171 1170 41
a 1171 1168 3
a 1172 1173 9
a 1172 1372 25
a 1172 1169 6
a 1172 1356 6
a 1173 1174 41
a 1173 1172 9
a 1173 1170 5
a 1173 1175 5
a 1174 1173 41
a 1174 1171 2
a 1175 1173 5
a 1175 11360 4
a 1175 1176 41
a 1176 1174 3
a 1176 1175 41
a 1177 1350 41
a 1177 1176 3
a 1178 1179 15
a 1178 1183 25
a 1178 1147 11
a 1178 1383 14
a 1179 1180 41
a 1179 1178 15
a 1179 1181 6
a 1179 1104 6
a 1180 1179 41
a 1180 1182 3
a 1181 1182 41
a 1181 11404 7
a 1181 1179 6
a 1182 1181 41
a 1182 1184 3
a 1183 1178 25
a 1183 11404 1
a 1183 1186 7
a 1184 11404 41
a 1184 1185 3
a 1185 1186 24
a 1185 1188 3
a 1186 1119 9
a 1186 1187 12
a 1186 1183 7
a 1186 1185 24
a 1187 1190 12
a 1187 1186 12
a 1187 1188 29
a 1188 1189 3
a 1188 1187 29
a 1189 1190 22
a 1189 1191 3
a 1190 1192 11
a 1190 1187 12
a 1190 1189 22
a 1191 1192 16
a 1191 1635 8
a 1192 1191 16
a 1192 1392 14
a 1192 1212 27
a 1192 1190 11
a 1193 1515 6
a 1193 1110 15
a 1193 1467 13
a 1193 1105 13
a 1194 1357 9
a 1194 1382 7
a 1194 1349 28
a 1195 1206 7
a 1195 1207 7
a 1195 1404 43
a 1195 1451 51
a 1196 1199 14
a 1196 11034 16
a 1196 1204 29
a 1197 1405 14
a 1197 1404 15
a 1197 1207 43
a 1198 1439 14
a 1198 1451 15
a 1198 1207 51
a 1199 1203 34
a 1199 1201 14
a 1199 1196 14
a 1200 294 12
a 1200 1441 15
a 1200 1112 13
a 1200 11034 15
a 1201 293 12
a 1201 1199 14
a 1201 1452 16
a 1201 1454 12
a 1202 1406 10
a 1202 1452 9
a 1202 1203 7
a 1202 1391 12
a 1203 1199 34
a 1203 1202 7
a 1203 1204 6
a 1203 1450 41
a 1204 13520 5
a 1204 1203 6
a 1204 1196 29
a 1204 1451 41
a 1205 3212 9
a 1205 1438 21
a 1205 1448 8
a 1205 1491 5
a 1206 1195 7
a 1206 1107 7
a 1206 13510 34
a 1206 1450 51
a 1207 1111 7
a 1207 1195 7
a 1207 1198 51
a 1207 1197 43
a 1208 3177 8
a 1208 1446 8
a 1208 9946 22
a 1208 3179 22
a 1209 1404 18
a 1209 1460 17
a 1209 1210 19
a 1209 2462 18
a 1210 1405 12
a 1210 1484 12
a 1210 1209 19
a 1210 1115 20
a 1211 1158 11
a 1211 1160 15
a 1211 1161 11
a 1212 1192 27
a 1212 1636 6
a 1212 1635 7
a 1213 1457 40
a 1213 8419 7
a 1213 1582 9
a 1214 11409 1
a 1214 2019 22
a 1214 12363 2
a 1215 11409 1
a 1215 293 26
a 1215 1615 13
a 1216 1403 8
a 1216 1574 7
a 1216 1592 26
a 1216 1614 24
a 1217 9113 4
a 1217 8422 8
a 1218 12380 1
a 1218 11331 7
a 1219 8436 2
a 1219 152 15
a 1220 4972 3
a 1220 12075 29
a 1221 9891 3
a 1221 11330 3
a 1221 7759 12
a 1222 8788 4
a 1222 11580 6
a 1222 6845 23
a 1223 9900 9
a 1223 6815 9
a 1223 6817 11
a 1223 11679 13
a 1224 9583 4
a 1224 8782 10
a 1224 6857 19
a 1225 12062 1
a 1226 3534 2
a 1226 13073 3
a 1226 12463 3
a 1227 521 16
a 1227 523 30
a 1227 7242 12
a 1228 1229 17
a 1228 9487 11
a 1228 7242 7
a 1229 7241 18
a 1229 1228 17
a 1229 9488 8
a 1230 8378 10
a 1230 7557 2
a 1230 537 19
a 1231 1237 21
a 1231 537 10
a 1231 1232 3
a 1232 1233 43
a 1232 1234 11
a 1232 7545 8
a 1232 1231 3
a 1233 7247 11
a 1233 3081 3
a 1233 1232 43
a 1234 1235 10
a 1234 1232 11
a 1234 7247 36
a 1234 7537 15
a 1235 7554 2
a 1235 1234 10
a 1235 7550 22
a 1236 7550 6
a 1236 1295 19
a 1236 7247 11
a 1237 7546 10
a 1237 1231 21
a 1237 11954 1
a 1238 535 11
a 1238 1239 12
a 1238 7548 8
a 1239 7547 11
a 1239 565 10
a 1240 8079 16
a 1240 1317 5
a 1240 2476 8
a 1241 1313 9
a 1241 10130 19
a 1241 541 11
a 1242 548 11
a 1242 7502 7
a 1242 7162 19
a 1243 7164 8
a 1243 11865 13
a 1244 8074 15
a 1244 8076 11
a 1244 7164 8
a 1245 9052 1
a 1245 547 5
a 1245 542 80
a 1246 1282 10
a 1246 546 39
a 1246 1247 16
a 1247 2004 11
a 1247 1283 5
a 1247 1246 16
a 1248 7169 12
a 1249 1300 4
a 1249 1304 8
a 1249 10226 64
a 1250 1321 9
a 1250 2911 8
a 1250 1297 11
a 1251 1297 13
a 1251 13044 73
a 1251 1254 12
a 1252 1255 17
a 1252 1251 38
a 1253 13045 1
a 1253 11181 6
a 1254 1271 7
a 1254 1255 37
a 1254 7833 40
a 1254 1251 12
a 1255 1272 10
a 1255 1254 37
a 1255 10135 40
a 1256 1271 6
a 1256 1258 9
a 1256 13047 65
a 1256 1257 38
a 1257 1259 13
a 1257 1256 38
a 1257 10138 37
a 1258 1256 9
a 1258 482 41
a 1258 1260 8
a 1259 13495 13
a 1259 12314 13
a 1260 1262 9
a 1260 12314 25
a 1260 1258 8
a 1261 12130 6
a 1261 9685 12
a 1262 1260 9
a 1262 1261 57
a 1262 1264 8
a 1262 1263 38
a 1263 1269 13
a 1263 1262 38
a 1263 10136 30
a 1264 1269 38
a 1264 1262 8
a 1264 1265 9
a 1265 1264 9
a 1265 7455 10
a 1266 1268 15
a 1266 1265 38
a 1267 2898 8
a 1267 2985 21
a 1267 1320 12
a 1268 7342 12
a 1269 1266 13
a 1269 1264 38
a 1269 10228 28
a 1270 1301 1
a 1270 1296 16
a 1271 1272 37
a 1271 1254 7
a 1271 1256 6
a 1272 1271 37
a 1272 1257 10
a 1272 10139 39
a 1273 1274 11
a 1273 1278 12
a 1273 4379 28
a 1274 7551 6
a 1274 533 19
a 1274 565 14
a 1275 529 3
a 1275 530 4
a 1275 1276 11
a 1276 1277 10
a 1276 1275 11
a 1277 1279 17
a 1277 1276 10
a 1277 1278 12
a 1278 9489 6
a 1278 1273 12
a 1278 1277 12
a 1279 1277 17
a 1279 7551 5
a 1279 12012 13
a 1279 563 6
a 1280 528 7
a 1280 563 1
a 1280 1276 17
a 1281 7384 4
a 1281 529 24
a 1281 272 10
a 1282 1246 10
a 1282 2005 9
a 1282 4365 19
a 1283 2770 12
a 1283 1247 5
a 1283 1284 11
a 1284 132 13
a 1284 8971 12
a 1284 1283 11
a 1285 272 6
a 1285 1286 43
a 1285 2480 5
a 1286 132 4
a 1286 1285 43
a 1286 13035 10
a 1287 2770 25
a 1287 2480 11
a 1287 1288 24
a 1288 8073 10
a 1288 2770 20
a 1289 556 7
a 1289 1290 5
a 1289 555 32
a 1290 1289 5
a 1290 558 1
a 1290 7539 25
a 1291 7542 1
a 1291 7545 8
a 1291 1292 20
a 1292 560 2
a 1292 1291 20
a 1292 552 10
a 1293 273 11
a 1294 8079 19
a 1294 8079 35
a 1294 274 11
a 1294 4331 27
a 1295 1236 19
a 1295 2475 66
a 1295 7512 53
a 1296 1252 19
a 1296 10133 45
a 1297 1250 11
a 1297 1251 13
a 1297 1296 38
a 1298 13043 8
a 1298 99 8
a 1298 1297 76
a 1299 1308 8
a 1299 1300 9
a 1299 1303 18
a 1300 1299 9
a 1300 1249 4
a 1300 1320 14
a 1301 1310 9
a 1301 1302 9
a 1302 1311 10
a 1302 1307 9
a 1303 1306 18
a 1303 1304 9
a 1303 2771 8
a 1303 1299 18
a 1304 1303 9
a 1304 1249 8
a 1304 1305 12
a 1305 1306 9
a 1305 1304 12
a 1305 10225 10
a 1306 1303 18
a 1306 10131 13
a 1306 1309 8
a 1306 1305 9
a 1307 7108 10
a 1307 9705 5
a 1308 1310 8
a 1308 1299 8
a 1308 2771 18
a 1309 7108 8
a 1309 1306 8
a 1309 10132 12
a 1309 2771 18
a 1310 1308 8
a 1310 1311 18
a 1310 1301 9
a 1311 2771 8
a 1311 1302 10
a 1311 7108 18
a 1311 1310 18
a 1312 1314 12
a 1312 1313 68
a 1312 3169 25
a 1313 1241 9
a 1313 1312 68
a 1313 3020 11
a 1314 1312 12
a 1314 540 17
a 1314 3020 18
a 1314 7359 5
a 1315 12149 33
a 1315 12724 12
a 1316 11026 11
a 1316 540 11
a 1316 7511 20
a 1317 7502 31
a 1317 1240 5
a 1317 2772 22
a 1318 7502 32
a 1319 1318 14
a 1319 11701 7
a 1320 3017 12
a 1320 1267 12
a 1320 1300 14
a 1321 2862 12
a 1321 1270 10
a 1322 1325 7
a 1322 7107 89
a 1322 8084 17
a 1323 7364 55
a 1323 1326 32
a 1323 4358 110
a 1324 7252 5
a 1324 1325 15
a 1324 7364 34
a 1325 1322 7
a 1325 1324 15
a 1325 12839 32
a 1326 1323 32
a 1326 7253 33
a 1326 12771 19
a 1327 7253 11
a 1327 1329 9
a 1328 7251 19
a 1328 7363 19
a 1328 7504 12
a 1329 1327 9
a 1329 7504 11
a 1329 1330 20
a 1330 8778 5
a 1330 1329 20
a 1330 1327 42
a 1331 7440 3
a 1331 5242 3
a 1332 1653 5
a 1332 8167 12
a 1333 1338 9
a 1333 1109 15
a 1333 1334 14
a 1334 1342 9
a 1334 1333 14
a 1334 1335 15
a 1335 1343 4
a 1335 1336 15
a 1335 1334 15
a 1336 1335 15
a 1337 1340 9
a 1337 1652 7
a 1337 8370 17
a 1337 1145 22
a 1338 2459 29
a 1338 1113 8
a 1338 1333 9
a 1339 1340 21
a 1339 1351 6
a 1339 1145 6
a 1340 1341 32
a 1340 1339 21
a 1340 1381 10
a 1340 1337 9
a 1341 1113 29
a 1341 1340 32
a 1341 1355 6
a 1341 2459 6
a 1342 1113 29
a 1342 1353 6
a 1342 1334 9
a 1342 1343 29
a 1343 1344 29
a 1343 1352 5
a 1343 1342 29
a 1344 1343 29
a 1344 1336 3
a 1344 1364 29
a 1345 1346 29
a 1345 1794 2
a 1346 1347 28
a 1346 1345 29
a 1346 1361 4
a 1347 1348 29
a 1347 1346 28
a 1347 1353 5
a 1347 1360 6
a 1348 1349 29
a 1348 1347 29
a 1348 1358 9
a 1348 1354 9
a 1349 1194 28
a 1349 1348 29
a 1349 1359 6
a 1349 1355 6
a 1350 1177 41
a 1350 4098 9
a 1350 11360 1
a 1350 1351 9
a 1351 4097 10
a 1351 1339 6
a 1351 1350 9
a 1352 11357 29
a 1352 1353 28
a 1352 1346 4
a 1353 1352 28
a 1353 1354 28
a 1353 1347 5
a 1353 1342 6
a 1354 1353 28
a 1354 1355 29
a 1354 1348 9
a 1354 1113 9
a 1355 1354 29
a 1355 1381 33
a 1355 1349 6
a 1355 1341 6
a 1356 1357 25
a 1356 1172 6
a 1356 11360 5
a 1357 1372 9
a 1357 1194 9
a 1357 1359 27
a 1357 1356 25
a 1358 1360 29
a 1358 1359 29
a 1358 1370 9
a 1358 1348 9
a 1359 1358 29
a 1359 1357 27
a 1359 1371 6
a 1359 1349 6
a 1360 1361 28
a 1360 1358 29
a 1360 1369 6
a 1360 1347 6
a 1361 2458 29
a 1361 1360 28
a 1361 1368 5
a 1362 1363 29
a 1362 2458 29
a 1362 1366 6
a 1362 1798 5
a 1363 1362 29
a 1363 1799 5
a 1364 1792 5
a 1364 7927 6
a 1364 1344 29
a 1365 1368 29
a 1365 1366 29
a 1365 2458 4
a 1366 1367 29
a 1366 1375 6
a 1366 1362 6
a 1366 1365 29
a 1367 1366 29
a 1367 1363 5
a 1368 1369 28
a 1368 1365 29
a 1368 1374 4
a 1369 1370 29
a 1369 1368 28
a 1369 1376 6
a 1369 1360 6
a 1370 1371 29
a 1370 1369 29
a 1370 1377 9
a 1370 1358 9
a 1371 1372 27
a 1371 1370 29
a 1371 1378 6
a 1371 1359 6
a 1372 1379 9
a 1372 1357 9
a 1372 1172 25
a 1372 1371 27
a 1373 1374 29
a 1373 1365 5
a 1373 1375 29
a 1374 1373 29
a 1374 1376 28
a 1374 1785 5
a 1375 1366 6
a 1375 1373 29
a 1375 1118 3
a 1376 1374 28
a 1376 1377 29
a 1376 1520 6
a 1376 1369 6
a 1377 1376 29
a 1377 1378 29
a 1377 2457 9
a 1377 1370 9
a 1378 1377 29
a 1378 1379 27
a 1378 1522 6
a 1378 1371 6
a 1379 1524 9
a 1379 1372 9
a 1379 1378 27
a 1379 1169 25
a 1380 1652 7
a 1380 1108 1
a 1380 8371 11
a 1381 1355 33
a 1381 4097 10
a 1381 1382 11
a 1381 1340 10
a 1382 4098 9
a 1382 1194 7
a 1382 1381 11
a 1383 1178 14
a 1383 9353 14
a 1383 1119 17
a 1383 8094 11
a 1384 1385 17
a 1384 2455 17
a 1384 1387 22
a 1384 13514 11
a 1385 1435 10
a 1385 1384 17
a 1385 11410 3
a 1385 12155 30
a 1386 2460 11
a 1386 1397 16
a 1386 1107 10
a 1387 1393 24
a 1387 1384 22
a 1387 1388 11
a 1387 1458 11
a 1388 8367 2
a 1388 1389 7
a 1388 11410 31
a 1388 1387 11
a 1389 1434 7
a 1389 1388 7
a 1389 1432 35
a 1389 11410 29
a 1390 1398 36
a 1390 1399 34
a 1390 1411 9
a 1390 1413 8
a 1391 1407 9
a 1391 1394 17
a 1391 1202 12
a 1391 1453 14
a 1392 1462 14
a 1392 1192 14
a 1392 1636 12
a 1392 1119 18
a 1393 1395 17
a 1393 1457 16
a 1393 1582 23
a 1393 1387 24
a 1394 8144 7
a 1394 1391 17
a 1394 1408 14
a 1395 8367 34
a 1395 1400 14
a 1395 1393 17
a 1395 8366 11
a 1396 1403 7
a 1396 1397 17
a 1396 1420 11
a 1396 1418 13
a 1397 1396 17
a 1397 1386 16
a 1397 1419 8
a 1397 1422 7
a 1398 1414 9
a 1398 1410 9
a 1398 1450 13
a 1398 1390 36
a 1399 1401 13
a 1399 1390 34
a 1399 1409 13
a 1399 1412 12
a 1400 1431 25
a 1400 1395 14
a 1400 1402 16
a 1401 1403 48
a 1401 1399 13
a 1401 1614 16
a 1402 1592 15
a 1402 1400 16
a 1402 1582 9
a 1403 1216 8
a 1403 1396 7
a 1403 1401 48
a 1403 13508 37
a 1404 1485 13
a 1404 1195 43
a 1404 1197 15
a 1404 1209 18
a 1405 1111 29
a 1405 1210 12
a 1405 1197 14
a 1406 1407 28
a 1406 1202 10
a 1406 1410 9
a 1407 1408 34
a 1407 1406 28
a 1407 1391 9
a 1407 1411 9
a 1408 1407 34
a 1408 1409 13
a 1408 1394 14
a 1409 1408 13
a 1409 1411 34
a 1409 1399 13
a 1410 1406 9
a 1410 1411 32
a 1410 1398 9
a 1411 1407 9
a 1411 1410 32
a 1411 1409 34
a 1411 1390 9
a 1412 1413 34
a 1412 1399 12
a 1412 1415 12
a 1413 1412 34
a 1413 1414 40
a 1413 1416 8
a 1413 1390 8
a 1414 1398 9
a 1414 1417 8
a 1414 1413 40
a 1415 1416 34
a 1415 1418 12
a 1415 1412 12
a 1416 1415 34
a 1416 1417 44
a 1416 1413 8
a 1416 1419 8
a 1417 1414 8
a 1417 1416 44
a 1417 1421 8
a 1418 1415 12
a 1418 1396 13
a 1418 1419 34
a 1419 1421 47
a 1419 1397 8
a 1419 1418 34
a 1419 1416 8
a 1420 1396 11
a 1420 1424 10
a 1420 1422 34
a 1421 1107 9
a 1421 1419 47
a 1421 1417 8
a 1422 2460 32
a 1422 1397 7
a 1422 1425 7
a 1422 1420 34
a 1423 1107 8
a 1423 2774 7
a 1423 2460 23
a 1424 1420 10
a 1424 1430 10
a 1424 1425 34
a 1425 1426 32
a 1425 1422 7
a 1425 1429 7
a 1425 1424 34
a 1426 2460 10
a 1426 1428 10
a 1426 1425 32
a 1426 2774 26
a 1427 2774 7
a 1427 1106 7
a 1427 1428 29
a 1428 1426 10
a 1428 1435 10
a 1428 1429 33
a 1428 1427 29
a 1429 1428 33
a 1429 1425 7
a 1429 1434 7
a 1429 1430 34
a 1430 1424 10
a 1430 1433 10
a 1430 1429 34
a 1431 13508 14
a 1431 1400 25
a 1431 1592 15
a 1431 1432 12
a 1432 1431 12
a 1432 1389 35
a 1432 1433 11
a 1432 8366 10
a 1433 1430 10
a 1433 1432 11
a 1433 1434 33
a 1434 1435 33
a 1434 1429 7
a 1434 1389 7
a 1434 1433 33
a 1435 1428 10
a 1435 1385 10
a 1435 1434 33
a 1435 12155 29
a 1436 1445 8
a 1436 1111 8
a 1436 1440 51
a 1437 1442 7
a 1437 1441 19
a 1437 1112 7
a 1437 13522 19
a 1438 1447 15
a 1438 9946 3
a 1438 1205 21
a 1438 1489 23
a 1439 1440 15
a 1439 1198 14
a 1439 1112 28
a 1439 1111 34
a 1440 13522 22
a 1440 1443 15
a 1440 1439 15
a 1440 1436 51
a 1441 1444 15
a 1441 1437 19
a 1441 1200 15
a 1442 1437 7
a 1442 1448 8
a 1442 1444 22
a 1442 1443 41
a 1443 1442 41
a 1443 1445 51
a 1443 1447 15
a 1443 1440 15
a 1444 1441 15
a 1444 1442 22
a 1444 1449 16
a 1445 1436 8
a 1445 1443 51
a 1445 1446 8
a 1446 1208 8
a 1446 1445 8
a 1446 1447 51
a 1447 1448 42
a 1447 1438 15
a 1447 1443 15
a 1447 1446 51
a 1448 1442 8
a 1448 1449 26
a 1448 1447 42
a 1448 1205 8
a 1449 1517 17
a 1449 1448 26
a 1449 1444 16
a 1450 1206 51
a 1450 1451 13
a 1450 1398 13
a 1450 1203 41
a 1451 1198 15
a 1451 1450 13
a 1451 1195 51
a 1452 1202 9
a 1452 1201 16
a 1452 1453 20
a 1453 9042 17
a 1453 1454 24
a 1453 1452 20
a 1453 1391 14
a 1454 1453 24
a 1454 1456 18
a 1454 1201 12
a 1455 9042 28
a 1455 8144 14
a 1455 1456 36
a 1456 9042 23
a 1456 1455 36
a 1456 1454 18
a 1457 1458 36
a 1457 1213 40
a 1457 1393 16
a 1457 1476 10
a 1458 1457 36
a 1458 1475 9
a 1458 2455 33
a 1458 1387 11
a 1459 1460 27
a 1459 2455 34
a 1459 1473 12
a 1459 2462 12
a 1460 1459 27
a 1460 1209 17
a 1460 1477 17
a 1461 1470 17
a 1461 1118 14
a 1461 1780 26
a 1461 1465 61
a 1462 1476 11
a 1462 1392 14
a 1462 9354 36
a 1462 9355 22
a 1463 1471 17
a 1463 1114 13
a 1463 1464 30
a 1463 2456 30
a 1464 1110 9
a 1464 1467 29
a 1464 1463 30
a 1464 1472 11
a 1465 3 4
a 1465 1461 61
a 1466 1473 11
a 1466 1105 9
a 1466 9353 35
a 1466 1467 27
a 1467 1477 17
a 1467 1193 13
a 1467 1464 29
a 1468 1470 56
a 1468 1465 6
a 1469 1482 9
a 1469 2456 8
a 1469 13477 15
a 1469 1788 30
a 1470 1478 17
a 1470 1461 17
a 1470 1781 26
a 1470 1468 56
a 1471 1483 17
a 1471 1463 17
a 1471 1472 30
a 1471 13474 9
a 1472 13476 14
a 1472 1471 30
a 1472 1484 12
a 1472 1464 11
a 1473 1459 12
a 1473 1466 11
a 1473 13512 21
a 1474 2455 15
a 1474 9353 15
a 1474 1475 34
a 1474 13512 13
a 1475 1458 9
a 1475 9354 8
a 1475 1476 36
a 1475 1474 34
a 1476 1457 10
a 1476 1462 11
a 1476 1475 36
a 1476 9355 28
a 1477 1460 17
a 1477 1467 17
a 1477 13476 15
a 1477 1473 27
a 1478 1479 18
a 1478 1470 17
a 1478 13468 18
a 1478 1481 50
a 1479 1478 18
a 1479 1783 17
a 1479 2183 35
a 1479 1486 13
a 1480 1491 12
a 1480 1488 39
a 1480 1526 10
a 1481 7467 2
a 1481 1478 50
a 1482 1469 9
a 1482 1483 30
a 1482 13470 19
a 1482 1117 8
a 1483 1115 18
a 1483 1471 17
a 1483 1484 30
a 1483 1482 30
a 1484 1210 12
a 1484 1483 30
a 1484 1472 12
a 1485 1404 13
a 1485 1106 14
a 1485 13510 10
a 1486 13451 28
a 1486 1479 13
a 1486 737 17
a 1487 1488 20
a 1487 2179 49
a 1487 736 23
a 1488 1487 20
a 1488 1480 39
a 1488 2180 49
a 1488 1489 24
a 1489 1491 26
a 1489 1490 33
a 1489 1488 24
a 1489 1438 23
a 1490 2180 12
a 1490 1489 33
a 1490 3177 12
a 1490 3178 34
a 1491 1489 26
a 1491 1480 12
a 1491 1205 5
a 1492 1495 24
a 1492 620 17
a 1492 11174 91
a 1493 143 2
a 1493 13410 4
a 1494 1493 2
a 1494 8928 34
a 1495 619 12
a 1495 282 2
a 1495 608 22
a 1496 2428 1
a 1496 610 24
a 1497 1498 9
a 1498 2396 10
a 1498 280 2
a 1498 1499 13
a 1499 1765 3
a 1499 1500 13
a 1499 2401 14
a 1500 1767 3
a 1500 2390 14
a 1500 1501 23
a 1501 279 3
a 1501 10073 14
a 1501 2018 12
a 1502 12581 16
a 1502 608 4
a 1502 282 22
a 1503 1494 2
a 1503 12766 4
a 1504 1505 29
a 1504 1114 6
a 1504 1510 9
a 1505 1506 28
a 1505 1504 29
a 1505 1514 6
a 1505 1509 6
a 1506 1513 9
a 1506 1508 9
a 1506 1507 25
a 1506 1505 28
a 1507 1506 25
a 1507 1512 6
a 1507 1160 6
a 1508 1506 9
a 1508 1525 9
a 1508 1509 28
a 1508 1160 25
a 1509 1510 29
a 1509 1508 28
a 1509 1505 6
a 1509 1523 6
a 1510 1509 29
a 1510 1504 9
a 1510 1519 9
a 1510 1511 29
a 1511 1521 6
a 1511 1510 29
a 1511 1116 3
a 1512 1513 25
a 1512 1151 13
a 1512 1516 6
a 1512 1507 6
a 1513 1515 9
a 1513 1506 9
a 1513 1514 28
a 1513 1512 25
a 1514 1513 28
a 1514 1110 4
a 1514 1505 6
a 1515 1193 6
a 1515 1513 9
a 1515 1516 25
a 1516 1515 25
a 1516 1512 6
a 1516 1105 10
a 1517 1449 17
a 1517 3212 8
a 1517 1518 44
a 1517 295 10
a 1518 1527 17
a 1518 1517 44
a 1519 1523 29
a 1519 1521 29
a 1519 1510 9
a 1519 2457 9
a 1520 1785 28
a 1520 2457 29
a 1520 1521 6
a 1520 1376 6
a 1521 1519 29
a 1521 4096 28
a 1521 1511 6
a 1521 1520 6
a 1522 2457 29
a 1522 1524 27
a 1522 1523 6
a 1522 1378 6
a 1523 1525 28
a 1523 1519 29
a 1523 1509 6
a 1523 1522 6
a 1524 1525 9
a 1524 1379 9
a 1524 1522 27
a 1524 1166 25
a 1525 1508 9
a 1525 1524 9
a 1525 1163 25
a 1525 1523 28
a 1526 13444 8
a 1526 1480 10
a 1526 8928 11
a 1527 12765 3
a 1528 3533 25
a 1528 2482 6
a 1528 102 15
a 1529 2483 6
a 1529 3533 31
a 1529 2831 10
a 1530 1532 7
a 1530 11451 49
a 1530 8615 9
a 1531 155 13
a 1531 1532 42
a 1531 11451 11
a 1532 9106 8
a 1532 1530 7
a 1533 2481 7
a 1533 9106 8
a 1534 438 14
a 1534 682 33
a 1534 12424 11
a 1534 9873 14
a 1535 7439 21
a 1535 682 20
a 1535 455 28
a 1535 9873 27
a 1536 457 21
a 1536 1539 14
a 1536 12358 3
a 1536 680 19
a 1537 1862 58
a 1537 461 14
a 1537 3182 16
a 1537 13449 10
a 1538 461 24
a 1538 3203 15
a 1538 3181 19
a 1538 3193 20
a 1539 10821 15
a 1539 1536 14
a 1539 8914 48
a 1539 2453 47
a 1540 13618 13
a 1540 7730 10
a 1541 1542 16
a 1541 7769 26
a 1541 1099 14
a 1541 5 49
a 1542 684 3
a 1542 1541 16
a 1543 12419 4
a 1543 5 18
a 1544 1561 6
a 1544 1563 47
a 1544 1562 18
a 1544 603 7
a 1545 1563 9
a 1545 603 33
a 1545 9359 7
a 1546 11068 3
a 1546 1547 9
a 1547 1555 13
a 1547 1550 45
a 1547 1546 9
a 1548 1554 13
a 1548 1558 19
a 1548 1557 18
a 1548 1549 13
a 1549 1557 8
a 1549 1562 9
a 1549 1561 28
a 1549 1548 13
a 1550 2429 18
a 1550 1547 45
a 1550 1551 19
a 1550 1554 14
a 1551 1556 10
a 1551 2430 12
a 1551 1552 50
a 1551 1550 19
a 1552 1553 9
a 1552 615 12
a 1552 1551 50
a 1553 1552 9
a 1553 1556 49
a 1553 1559 9
a 1554 1548 13
a 1554 1555 31
a 1554 1556 19
a 1554 1550 14
a 1555 1547 13
a 1555 1557 13
a 1555 1554 31
a 1556 1553 49
a 1556 1558 9
a 1556 1551 10
a 1556 1554 19
a 1557 1549 8
a 1557 1555 13
a 1557 1548 18
a 1558 1561 6
a 1558 1556 9
a 1558 1559 47
a 1558 1548 19
a 1559 9928 6
a 1559 1553 9
a 1559 1558 47
a 1560 1563 6
a 1560 9928 1
a 1560 1561 47
a 1561 1544 6
a 1561 1558 6
a 1561 1560 47
a 1561 1549 28
a 1562 1549 9
a 1562 603 12
a 1562 1544 18
a 1563 1545 9
a 1563 1560 6
a 1563 1544 47
a 1564 66 1
a 1564 2983 5
a 1565 1564 1
a 1565 11783 22
a 1566 1095 5
a 1566 11003 17
a 1567 91 1
a 1567 1094 12
a 1567 1566 17
a 1568 1565 1
a 1568 13013 1
a 1569 10297 61
a 1569 3328 28
a 1569 12736 25
a 1570 11497 5
a 1570 7752 21
a 1570 10230 56
a 1571 3318 66
a 1571 3318 3
a 1571 12228 10
a 1572 1871 14
a 1572 1868 10
a 1573 1581 13
a 1573 1579 15
a 1574 1629 6
a 1574 1216 7
a 1574 1613 48
a 1574 4095 14
a 1575 2764 22
a 1575 292 3
a 1576 1605 28
a 1576 1584 9
a 1576 1577 8
a 1577 1603 10
a 1577 1606 50
a 1577 1578 18
a 1577 1576 8
a 1578 1581 45
a 1578 1604 28
a 1578 1579 9
a 1578 1577 18
a 1579 1100 2
a 1579 1602 12
a 1579 1578 9
a 1580 1585 5
a 1581 1573 13
a 1581 1578 45
a 1581 1606 13
a 1582 1583 9
a 1582 1402 9
a 1582 1213 9
a 1582 1393 23
a 1583 1584 34
a 1583 1588 12
a 1583 1601 14
a 1583 1582 9
a 1584 1583 34
a 1584 1576 9
a 1584 1587 8
a 1584 1585 39
a 1585 1584 39
a 1585 1586 4
a 1586 1587 57
a 1586 1591 4
a 1587 1584 8
a 1587 1589 7
a 1587 1588 51
a 1587 1586 57
a 1588 1590 11
a 1588 1583 12
a 1588 1587 51
a 1589 1591 55
a 1589 1587 7
a 1589 1595 8
a 1589 1590 51
a 1590 1596 11
a 1590 1588 11
a 1590 1589 51
a 1591 1589 55
a 1591 13108 3
a 1592 1431 15
a 1592 1402 15
a 1592 1216 26
a 1592 1593 14
a 1593 1596 13
a 1593 1597 12
a 1593 1594 51
a 1593 1592 14
a 1594 1598 9
a 1594 1593 51
a 1594 1595 8
a 1595 1589 8
a 1595 1594 8
a 1595 1596 51
a 1596 1593 13
a 1596 1590 11
a 1596 1595 51
a 1597 1622 12
a 1597 1593 12
a 1597 1598 51
a 1598 1599 27
a 1598 1594 9
a 1598 1623 8
a 1598 1597 51
a 1599 1598 27
a 1600 1608 6
a 1600 1624 7
a 1600 1611 48
a 1600 4093 14
a 1601 1583 14
a 1601 1606 12
a 1601 1576 51
a 1602 1604 12
a 1602 1634 15
a 1603 1604 14
a 1603 1577 10
a 1603 1605 24
a 1604 1603 14
a 1604 1602 12
a 1604 1578 28
a 1604 9982 46
a 1605 9982 26
a 1605 1603 24
a 1606 1601 12
a 1606 1577 50
a 1606 1581 13
a 1607 13529 20
a 1607 1609 6
a 1607 1617 7
a 1608 290 7
a 1608 1600 6
a 1608 1610 48
a 1609 1621 5
a 1609 1607 6
a 1609 1610 44
a 1610 1611 9
a 1610 12556 11
a 1610 1609 44
a 1610 1608 48
a 1611 13529 21
a 1611 1625 11
a 1611 1610 9
a 1611 1600 48
a 1612 1616 39
a 1612 1625 11
a 1612 1627 10
a 1612 2775 48
a 1613 1631 10
a 1613 2764 39
a 1613 1574 48
a 1613 1614 11
a 1614 1401 16
a 1614 1613 11
a 1614 1216 24
a 1614 1615 20
a 1615 2764 7
a 1615 8144 7
a 1615 1215 13
a 1615 1614 20
a 1616 1612 39
a 1616 1617 7
a 1616 1628 6
a 1617 1616 7
a 1617 1607 7
a 1618 2074 2
a 1618 1621 2
a 1618 12291 17
a 1619 2073 31
a 1619 2074 9
a 1619 1694 16
a 1619 1620 9
a 1620 2076 17
a 1620 2079 47
a 1620 1619 9
a 1621 1618 2
a 1621 1609 5
a 1621 12234 18
a 1622 4095 13
a 1622 1597 12
a 1622 1623 51
a 1623 1598 8
a 1623 4094 8
a 1623 4093 39
a 1623 1622 51
a 1624 1600 7
a 1624 2775 7
a 1624 1625 48
a 1625 1612 11
a 1625 1611 11
a 1625 1617 39
a 1625 1624 48
a 1626 2775 6
a 1626 13517 44
a 1626 1629 13
a 1627 1633 11
a 1627 1612 10
a 1627 1628 39
a 1627 13517 5
a 1628 1616 6
a 1628 1632 6
a 1628 1627 39
a 1629 1574 6
a 1629 1631 48
a 1629 1626 13
a 1630 2764 6
a 1630 1631 39
a 1630 1632 6
a 1631 1613 10
a 1631 1633 10
a 1631 1630 39
a 1631 1629 48
a 1632 1633 38
a 1632 1628 6
a 1632 1630 6
a 1633 1632 38
a 1633 1631 10
a 1633 1627 11
a 1634 1580 4
a 1634 9084 1
a 1635 1212 7
a 1635 8514 5
a 1636 9355 14
a 1636 1392 12
a 1636 1212 6
a 1636 8513 6
a 1637 9117 9
a 1637 7465 3
a 1638 1650 10
a 1638 1649 13
a 1638 1648 10
a 1639 1645 8
a 1639 1646 10
a 1639 1100 14
a 1641 1640 3
a 1642 8654 3
a 1642 10002 7
a 1643 1644 14
a 1644 1642 18
a 1645 1639 8
a 1645 1643 30
a 1646 1639 10
a 1646 1647 9
a 1647 1646 9
a 1647 1648 9
a 1648 1647 9
a 1648 1638 10
a 1649 1638 13
a 1649 1100 12
a 1650 1638 10
a 1650 1651 10
a 1651 1650 10
a 1651 9117 9
a 1652 1337 7
a 1652 1380 7
a 1652 1653 22
a 1653 1652 22
a 1653 1145 5
a 1653 1332 5
a 1654 11406 1
a 1654 2778 12
a 1655 1856 10
a 1655 9083 5
a 1656 1663 2
a 1656 8416 7
a 1656 729 7
a 1657 8213 3
a 1657 12917 4
a 1657 1665 20
a 1658 1661 3
a 1658 12915 4
a 1658 1656 38
a 1659 10826 2
a 1659 12249 3
a 1659 5329 4
a 1660 9483 6
a 1660 5160 2
a 1661 1658 3
a 1661 7879 7
a 1661 1662 34
a 1662 267 1
a 1662 9451 39
a 1662 7881 7
a 1663 1656 2
a 1663 11310 7
a 1663 1661 38
a 1664 1665 1
a 1664 8213 20
a 1665 729 1
a 1665 1663 7
a 1666 8708 3
a 1666 4766 12
a 1666 9452 35
a 1667 9816 2
a 1668 1669 9
a 1668 12527 14
a 1668 1717 16
a 1669 3209 9
a 1669 1713 9
a 1669 1668 9
a 1669 13189 47
a 1670 1687 9
a 1670 1699 12
a 1670 1713 22
a 1671 3341 8
a 1671 1677 6
a 1671 1693 6
a 1671 1699 39
a 1672 12280 4
a 1672 3340 7
a 1672 3333 23
a 1673 3209 14
a 1673 1674 18
a 1673 3025 12
a 1674 1675 8
a 1674 1673 18
a 1674 3209 14
a 1675 1679 8
a 1675 1676 46
a 1675 1674 8
a 1675 1713 10
a 1676 1699 6
a 1676 1681 5
a 1676 1677 34
a 1676 1675 46
a 1677 1676 34
a 1677 1682 6
a 1677 1671 6
a 1678 1714 17
a 1678 1679 19
a 1678 3025 11
a 1679 1675 8
a 1679 1714 13
a 1679 3208 14
a 1679 1678 19
a 1680 2982 21
a 1680 3207 8
a 1680 3208 8
a 1681 1676 5
a 1681 1697 8
a 1681 3207 9
a 1682 1681 30
a 1682 1677 6
a 1683 1684 10
a 1683 1713 7
a 1683 1712 36
a 1684 1711 32
a 1684 1685 9
a 1684 1683 10
a 1685 1710 29
a 1685 1686 9
a 1685 1684 9
a 1686 1687 9
a 1686 1685 9
a 1686 1709 27
a 1687 1670 9
a 1687 1686 9
a 1687 1708 25
a 1687 1688 10
a 1688 1689 9
a 1688 1707 25
a 1688 1687 10
a 1689 1688 9
a 1689 1700 25
a 1689 1699 6
a 1689 1690 5
a 1690 1706 26
a 1690 1691 6
a 1690 1689 5
a 1691 1705 26
a 1691 1692 6
a 1691 1690 6
a 1692 1704 6
a 1692 1691 6
a 1693 3343 4
a 1693 1704 5
a 1693 1671 6
a 1694 1703 18
a 1694 1619 16
a 1694 285 19
a 1695 1682 5
a 1695 11874 8
a 1696 1695 2
a 1696 2021 18
a 1697 1681 8
a 1697 1698 11
a 1697 1696 14
a 1698 3207 18
a 1698 1697 11
a 1698 2982 9
a 1699 1676 6
a 1699 1689 6
a 1699 1670 12
a 1699 1671 39
a 1700 1706 9
a 1700 1689 25
a 1700 1707 9
a 1701 1705 9
a 1701 1692 26
a 1702 1703 10
a 1702 1701 8
a 1703 1694 18
a 1703 1702 10
a 1704 1693 5
a 1704 1692 6
a 1704 1702 28
a 1705 1701 9
a 1705 1706 8
a 1705 1691 26
a 1706 1705 8
a 1706 1700 9
a 1706 1690 26
a 1707 2020 3
a 1707 1688 25
a 1707 1700 9
a 1708 2020 6
a 1708 1709 8
a 1708 1687 25
a 1709 1708 8
a 1709 1710 8
a 1709 1686 27
a 1710 1709 8
a 1710 1711 9
a 1710 1685 29
a 1711 1710 9
a 1711 1712 8
a 1711 1684 32
a 1712 1711 8
a 1712 13189 5
a 1712 1683 36
a 1713 1670 22
a 1713 1669 9
a 1713 1675 10
a 1713 1683 7
a 1714 1679 13
a 1714 2903 8
a 1714 1678 17
a 1715 7732 24
a 1715 293 3
a 1715 1721 17
a 1716 1747 9
a 1717 1718 20
a 1717 12363 9
a 1717 1668 16
a 1718 1745 49
a 1718 1719 15
a 1718 1717 20
a 1719 1744 34
a 1719 1720 14
a 1719 1718 15
a 1720 1743 22
a 1720 1721 22
a 1720 1719 14
a 1721 1747 21
a 1721 1715 17
a 1721 1742 14
a 1721 1720 22
a 1722 1732 29
a 1722 1738 15
a 1722 12207 17
a 1722 1723 31
a 1723 1734 26
a 1723 1728 17
a 1723 1722 31
a 1724 1726 46
a 1724 1728 17
a 1724 1725 19
a 1725 284 18
a 1725 295 2
a 1725 1724 19
a 1726 1724 46
a 1726 1729 17
a 1726 12456 67
a 1727 12527 1
a 1727 3158 7
a 1727 1746 9
a 1728 1729 46
a 1728 1724 17
a 1728 1723 17
a 1729 1728 46
a 1729 1726 17
a 1729 1730 17
a 1730 1734 21
a 1730 8162 10
a 1730 1729 17
a 1730 1735 16
a 1731 1732 30
a 1731 1736 14
a 1731 1735 17
a 1731 1737 17
a 1732 1722 29
a 1732 1731 30
a 1732 1733 15
a 1733 1734 15
a 1733 1732 15
a 1733 1735 25
a 1734 1723 26
a 1734 1730 21
a 1734 1733 15
a 1735 1733 25
a 1735 1730 16
a 1735 1731 17
a 1736 1731 14
a 1737 1738 45
a 1737 1731 17
a 1737 1739 17
a 1738 1737 45
a 1738 1722 15
a 1738 1740 14
a 1739 1740 30
a 1739 1737 17
a 1739 1741 14
a 1740 1739 30
a 1740 1738 14
a 1740 1742 15
a 1741 1742 23
a 1741 1747 14
a 1741 1739 14
a 1742 1741 23
a 1742 1740 15
a 1742 1721 14
a 1743 1720 22
a 1743 1747 16
a 1743 13527 14
a 1744 13527 1
a 1744 1719 34
a 1744 1745 15
a 1745 1718 49
a 1745 1746 6
a 1745 1744 15
a 1746 1745 6
a 1746 1727 9
a 1747 1716 9
a 1747 1721 21
a 1747 1741 14
a 1747 1743 16
a 1748 2174 30
a 1748 2172 5
a 1749 1761 17
a 1749 1564 9
a 1750 279 22
a 1750 1766 56
a 1750 7099 21
a 1750 1768 19
a 1751 1762 12
a 1751 1764 12
a 1751 1758 35
a 1752 1753 15
a 1752 13412 16
a 1752 1762 12
a 1752 1770 25
a 1753 1752 15
a 1753 1772 13
a 1753 1754 52
a 1754 1753 52
a 1754 281 23
a 1754 1755 19
a 1755 1772 48
a 1755 1756 15
a 1755 1754 19
a 1756 1771 49
a 1756 1773 65
a 1756 1755 15
a 1757 1770 16
a 1757 1763 12
a 1757 9996 7
a 1757 1773 26
a 1758 1751 35
a 1758 1763 11
a 1758 1759 12
a 1759 3042 19
a 1759 1760 31
a 1759 1758 12
a 1760 3085 10
a 1760 1769 38
a 1760 1759 31
a 1761 7099 13
a 1761 1749 17
a 1761 7100 56
a 1762 1751 12
a 1762 1752 12
a 1762 1763 38
a 1763 1758 11
a 1763 1762 38
a 1763 1757 12
a 1764 1751 12
a 1764 1766 37
a 1764 3042 13
a 1764 13411 14
a 1765 13411 2
a 1765 1499 3
a 1765 280 13
a 1766 1764 37
a 1766 1767 16
a 1766 3085 12
a 1766 1750 56
a 1767 1766 16
a 1767 1500 3
a 1767 1765 13
a 1768 12453 2
a 1768 1769 20
a 1768 1750 19
a 1769 1768 20
a 1769 7100 13
a 1769 1760 38
a 1770 1757 16
a 1770 1752 25
a 1770 1771 22
a 1771 1773 16
a 1771 1772 14
a 1771 1756 49
a 1771 1770 22
a 1772 1771 14
a 1772 1753 13
a 1772 1755 48
a 1773 1771 16
a 1773 1757 26
a 1773 1756 65
a 1774 1775 5
a 1774 13612 2
a 1775 496 3
a 1776 3037 3
a 1776 11085 1
a 1777 578 1
a 1777 3005 23
a 1777 3322 19
a 1778 12282 1
a 1779 1118 15
a 1779 1784 2
a 1779 1786 15
a 1780 1779 9
a 1780 1787 30
a 1780 1781 11
a 1780 1461 26
a 1781 1788 30
a 1781 1782 11
a 1781 1470 26
a 1781 1780 11
a 1782 11551 10
a 1782 13468 9
a 1782 1781 11
a 1782 1783 12
a 1783 13464 14
a 1783 1479 17
a 1783 1782 12
a 1783 13466 14
a 1784 1785 29
a 1784 1373 4
a 1785 1784 29
a 1785 1520 28
a 1785 4096 4
a 1786 1779 15
a 1786 1116 15
a 1786 1787 9
a 1787 1788 11
a 1787 1786 9
a 1787 1780 30
a 1787 2456 30
a 1788 1781 30
a 1788 1789 11
a 1788 1469 30
a 1788 1787 11
a 1789 13470 11
a 1789 1788 11
a 1789 11551 20
a 1789 1790 12
a 1790 13464 6
a 1790 3176 12
a 1790 1117 20
a 1790 1789 12
a 1791 1792 29
a 1791 1344 3
a 1792 1791 29
a 1792 1793 29
a 1792 1795 4
a 1792 1364 5
a 1793 1792 29
a 1794 1795 29
a 1794 11357 2
a 1795 1794 29
a 1795 1798 5
a 1795 1792 4
a 1795 1796 29
a 1796 1793 5
a 1796 1795 29
a 1797 1798 29
a 1797 1345 2
a 1798 1799 29
a 1798 1797 29
a 1798 1362 5
a 1798 1795 5
a 1799 1798 29
a 1799 1796 4
a 1800 13105 1
a 1800 7021 9
a 1800 7037 4
a 1801 2096 17
a 1801 7021 6
a 1801 2084 6
a 1802 7394 13
a 1802 2589 9
a 1803 2196 7
a 1803 1876 1
a 1803 1802 10
a 1804 2197 10
a 1804 1875 1
a 1804 7845 13
a 1805 7018 16
a 1805 3738 4
a 1805 2196 3
a 1806 1809 7
a 1806 2597 5
a 1806 2599 16
a 1806 3662 5
a 1807 2197 7
a 1807 1808 7
a 1807 1811 11
a 1807 2740 34
a 1808 1807 7
a 1808 3881 7
a 1808 2605 25
a 1808 3821 25
a 1809 2190 7
a 1809 1806 7
a 1809 9824 31
a 1809 3623 10
a 1810 3689 11
a 1810 3626 8
a 1810 1811 8
a 1811 4080 11
a 1811 1810 8
a 1811 1807 11
a 1812 2011 15
a 1812 1814 10
a 1812 2014 15
a 1813 1824 13
a 1813 1842 47
a 1813 1841 12
a 1814 1834 16
a 1814 1812 10
a 1814 1818 15
a 1815 1837 14
a 1815 1834 13
a 1815 1836 42
a 1816 1818 68
a 1816 13077 10
a 1816 1837 17
a 1817 13078 2
a 1817 1839 16
a 1817 7621 13
a 1818 1814 15
a 1818 1816 68
a 1818 13078 98
a 1819 1822 14
a 1819 10106 13
a 1819 1835 24
a 1819 1853 44
a 1820 1839 15
a 1820 1821 13
a 1820 1838 35
a 1821 1820 13
a 1821 1824 19
a 1821 2478 35
a 1822 1823 13
a 1822 1819 14
a 1822 2478 51
a 1823 1847 16
a 1823 1822 13
a 1823 1826 14
a 1824 1821 19
a 1824 9352 7
a 1824 1813 13
a 1824 1827 41
a 1825 1833 6
a 1826 1827 34
a 1826 1823 14
a 1826 7293 14
a 1827 1826 34
a 1827 1828 14
a 1827 1824 41
a 1828 7852 13
a 1828 1827 14
a 1828 7293 34
a 1829 1832 13
a 1829 7852 13
a 1829 1830 38
a 1830 7853 13
a 1830 1833 13
a 1830 1831 14
a 1830 1829 38
a 1831 1846 13
a 1831 1847 24
a 1831 1830 14
a 1832 7851 6
a 1832 1829 13
a 1832 1833 39
a 1833 1830 13
a 1833 1825 6
a 1833 1832 39
a 1834 1815 13
a 1834 1814 16
a 1834 1835 46
a 1835 1836 13
a 1835 1819 24
a 1835 1834 46
a 1836 1838 14
a 1836 1835 13
a 1836 1815 42
a 1837 1815 14
a 1837 1840 19
a 1837 1816 17
a 1838 1820 35
a 1838 1836 14
a 1838 2478 13
a 1838 1840 19
a 1839 1817 16
a 1839 1820 15
a 1839 1840 35
a 1840 1838 19
a 1840 1837 19
a 1840 1839 35
a 1841 1843 5
a 1841 1842 60
a 1841 1813 12
a 1842 1841 60
a 1842 1813 47
a 1842 1843 28
a 1843 1841 5
a 1843 1842 28
a 1843 13577 8
a 1844 2008 17
a 1844 1853 13
a 1844 2006 41
a 1845 1850 5
a 1845 2010 44
a 1845 1851 13
a 1846 7308 4
a 1846 1831 13
a 1846 1850 95
a 1847 1831 24
a 1847 1823 16
a 1847 7309 14
a 1848 1849 13
a 1848 7309 30
a 1848 7311 11
a 1849 1848 13
a 1849 7312 10
a 1849 1850 22
a 1850 1845 5
a 1850 1846 95
a 1850 1849 22
a 1851 2009 43
a 1851 1845 13
a 1851 1852 13
a 1852 2008 40
a 1852 1853 65
a 1852 1851 13
a 1853 1844 13
a 1853 1819 44
a 1853 1854 18
a 1853 1852 65
a 1854 1855 25
a 1854 1855 38
a 1854 1853 18
a 1855 1854 25
a 1855 1854 38
a 1855 10106 16
a 1856 2801 9
a 1856 1655 10
a 1856 1857 12
a 1856 2802 17
a 1857 9745 1
a 1857 1856 12
a 1857 2778 10
a 1858 287 9
a 1858 9078 3
a 1859 7830 2
a 1859 166 1
a 1860 7521 7
a 1860 9657 10
a 1861 3195 8
a 1861 3542 20
a 1861 12820 14
a 1862 12819 4
a 1862 11160 24
a 1862 1537 58
a 1862 7736 59
a 1863 9674 1
a 1863 10052 3
a 1864 9073 3
a 1864 3030 16
a 1865 13554 10
a 1865 8975 7
a 1866 9940 21
a 1866 1867 6
a 1866 10298 9
a 1867 11044 6
a 1867 1866 6
a 1867 9447 10
a 1868 2937 7
a 1868 2944 10
a 1868 1572 10
a 1869 1866 10
a 1870 2944 14
a 1870 1572 5
a 1871 8667 4
a 1871 1872 15
a 1872 1868 28
a 1872 1873 19
a 1873 10129 16
a 1874 10128 3
a 1874 10236 17
a 1875 1804 1
a 1875 8671 17
a 1876 1803 1
a 1876 7846 15
a 1877 1913 13
a 1877 1908 82
a 1877 1906 26
a 1878 6877 10
a 1878 1879 74
a 1878 1895 20
a 1879 1894 15
a 1879 1885 15
a 1879 1878 74
a 1880 1892 15
a 1880 12848 7
a 1880 1885 74
a 1880 1881 48
a 1881 1889 17
a 1881 12109 42
a 1881 1880 48
a 1882 1898 14
a 1882 1900 20
a 1882 1884 15
a 1883 1884 28
a 1883 1891 15
a 1883 1904 38
a 1884 1893 41
a 1884 1883 28
a 1884 1882 15
a 1885 1893 15
a 1885 1880 74
a 1885 1879 15
a 1886 1887 17
a 1886 6963 6
a 1887 1888 16
a 1887 1886 17
a 1887 2452 49
a 1888 1889 15
a 1888 1887 16
a 1888 1909 39
a 1889 1890 14
a 1889 1888 15
a 1889 1881 17
a 1889 1912 60
a 1890 1891 15
a 1890 1889 14
a 1890 1905 56
a 1891 1890 15
a 1891 1892 25
a 1891 1883 15
a 1892 1880 15
a 1892 1893 52
a 1892 1891 25
a 1893 1885 15
a 1893 1884 41
a 1893 1892 52
a 1894 1897 15
a 1894 1879 15
a 1894 1895 74
a 1895 1896 15
a 1895 1894 74
a 1895 1878 20
a 1896 1895 15
a 1896 1899 14
a 1896 1897 72
a 1897 1898 15
a 1897 1894 15
a 1897 1896 72
a 1898 1882 14
a 1898 1897 15
a 1898 1899 69
a 1899 1896 14
a 1899 1901 15
a 1899 1898 69
a 1900 1903 14
a 1900 1901 47
a 1900 1882 20
a 1901 1899 15
a 1901 1908 16
a 1901 1900 47
a 1902 1912 15
a 1902 1911 15
a 1902 1909 28
a 1903 1900 14
a 1903 1904 17
a 1903 1907 15
a 1904 1903 17
a 1904 1905 15
a 1904 1883 38
a 1905 1904 15
a 1905 1912 15
a 1905 1890 56
a 1906 1911 15
a 1906 2452 43
a 1906 1877 26
a 1907 1910 15
a 1907 1903 15
a 1907 1911 65
a 1908 1901 16
a 1908 1910 15
a 1908 1877 82
a 1908 6882 9
a 1909 1902 28
a 1909 2452 15
a 1909 1888 39
a 1910 1907 15
a 1910 1908 15
a 1910 1911 81
a 1911 1906 15
a 1911 1902 15
a 1911 1907 65
a 1911 1910 81
a 1912 1905 15
a 1912 1902 15
a 1912 1889 60
a 1913 1877 13
a 1913 13095 8
a 1914 6963 2
a 1914 1915 38
a 1914 1935 30
a 1915 10818 57
a 1915 12847 34
a 1915 1914 38
a 1916 12511 36
a 1916 12849 4
a 1916 1926 11
a 1917 1919 9
a 1917 6977 22
a 1917 8549 69
a 1918 1919 10
a 1918 1920 45
a 1918 1921 15
a 1919 1917 9
a 1919 1918 10
a 1919 1920 50
a 1920 1919 50
a 1920 1918 45
a 1920 8549 17
a 1921 6976 13
a 1921 7672 3
a 1921 1918 15
a 1922 1923 35
a 1922 8549 13
a 1922 1929 60
a 1923 1924 72
a 1923 1922 35
a 1923 1930 10
a 1924 1928 10
a 1924 6978 10
a 1924 1923 72
a 1925 12511 1
a 1925 1935 19
a 1926 1948 56
a 1926 1927 11
a 1926 1916 11
a 1927 1929 10
a 1927 1926 11
a 1927 1928 54
a 1928 1924 10
a 1928 1948 11
a 1928 1927 54
a 1929 1934 10
a 1929 1927 10
a 1929 1922 60
a 1930 1931 55
a 1930 1923 10
a 1930 6978 59
a 1930 1933 11
a 1931 1932 10
a 1931 6978 13
a 1931 1930 55
a 1932 1931 10
a 1932 1934 10
a 1932 1933 54
a 1933 1932 54
a 1933 1930 11
a 1933 1934 62
a 1934 1932 10
a 1934 1929 10
a 1934 1933 62
a 1935 1925 19
a 1935 1914 30
a 1935 1936 26
a 1936 1990 13
a 1936 1935 26
a 1937 1989 12
a 1937 1996 11
a 1937 1992 14
a 1937 1952 35
a 1938 10953 6
a 1938 1995 18
a 1938 1981 16
a 1938 1994 20
a 1939 1978 41
a 1939 1980 14
a 1939 1977 12
a 1940 1975 40
a 1940 7666 12
a 1940 1977 12
a 1941 7306 3
a 1941 67 38
a 1941 2015 6
a 1942 1936 36
a 1942 1991 15
a 1943 1952 13
a 1943 1996 36
a 1943 1944 14
a 1944 1945 6
a 1944 1943 14
a 1944 7664 31
a 1945 1944 6
a 1945 1946 5
a 1945 1995 31
a 1946 1945 5
a 1946 1994 7
a 1946 1947 6
a 1947 1982 20
a 1948 13094 2
a 1948 7804 14
a 1948 1926 56
a 1948 1928 11
a 1949 7804 13
a 1950 1987 14
a 1950 7666 38
a 1950 1975 11
a 1951 1980 40
a 1951 1986 14
a 1952 1988 15
a 1952 1943 13
a 1952 1937 35
a 1952 2000 15
a 1953 1992 6
a 1954 1966 10
a 1954 7668 4
a 1954 12491 10
a 1954 1968 46
a 1955 1962 34
a 1955 7669 3
a 1955 1969 10
a 1956 1987 15
a 1956 1984 45
a 1956 12492 6
a 1957 2451 19
a 1957 1964 10
a 1957 1958 41
a 1958 8088 4
a 1958 2451 32
a 1958 1959 42
a 1958 1957 41
a 1959 1967 6
a 1959 2451 13
a 1959 1958 42
a 1960 1967 3
a 1960 1972 9
a 1960 1961 25
a 1961 1962 10
a 1961 1973 9
a 1961 1960 25
a 1962 1955 34
a 1962 1961 10
a 1963 1970 14
a 1963 1965 14
a 1963 1967 11
a 1964 1957 10
a 1964 1966 12
a 1964 1963 40
a 1965 1966 46
a 1965 1968 11
a 1965 1963 14
a 1966 1954 10
a 1966 1964 12
a 1967 1960 3
a 1967 1959 6
a 1967 1963 11
a 1968 1969 11
a 1968 1965 11
a 1969 1968 11
a 1969 1970 28
a 1969 1955 10
a 1970 1962 13
a 1970 1969 28
a 1971 7670 12
a 1971 7671 12
a 1971 1974 29
a 1972 1974 14
a 1972 1960 9
a 1972 7671 28
a 1973 1974 10
a 1973 1961 9
a 1973 7670 29
a 1974 1973 10
a 1974 1972 14
a 1974 1971 29
a 1975 1940 40
a 1975 1976 11
a 1976 1977 42
a 1976 1978 11
a 1977 1976 42
a 1977 1939 12
a 1977 1940 12
a 1978 1939 41
a 1978 1951 13
a 1979 12841 1
a 1979 1985 20
a 1979 12840 7
a 1980 1951 40
a 1980 1981 15
a 1980 1939 14
a 1981 1982 37
a 1981 1938 16
a 1981 1980 15
a 1982 1981 37
a 1982 1951 15
a 1982 7665 15
a 1983 1984 30
a 1983 1986 38
a 1983 11105 14
a 1984 1986 14
a 1984 12840 9
a 1984 1983 30
a 1984 1956 45
a 1985 11106 1
a 1985 1979 20
a 1985 67 23
a 1986 1951 14
a 1986 1984 14
a 1986 1987 45
a 1986 1983 38
a 1987 1956 15
a 1987 1950 14
a 1987 1986 45
a 1988 1991 15
a 1988 1952 15
a 1988 1989 35
a 1989 1988 35
a 1989 1990 12
a 1989 1937 12
a 1990 1936 13
a 1990 1989 12
a 1990 1991 35
a 1991 1988 15
a 1991 1990 35
a 1991 1942 15
a 1991 10954 18
a 1992 1953 6
a 1992 1937 14
a 1992 12117 32
a 1992 7805 35
a 1993 10953 14
a 1994 1947 6
a 1994 1946 7
a 1994 1938 20
a 1995 1996 12
a 1995 1938 18
a 1995 1945 31
a 1996 1937 11
a 1996 1995 12
a 1996 1943 36
a 1997 2000 15
a 1997 12490 8
a 1997 1998 16
a 1997 1943 36
a 1998 1999 38
a 1998 1997 16
a 1998 2000 29
a 1999 1942 42
a 1999 1998 38
a 2000 1952 15
a 2000 1997 15
a 2000 1998 29
a 2001 12166 29
a 2001 7364 13
a 2002 10095 25
a 2003 547 7
a 2003 546 7
a 2003 2005 30
a 2003 7169 23
a 2004 1247 11
a 2005 2003 30
a 2005 1282 9
a 2005 8909 6
a 2006 12568 15
a 2006 1844 41
a 2006 12033 16
a 2007 2010 42
a 2007 12568 25
a 2007 2009 51
a 2008 1844 17
a 2008 1852 40
a 2008 2009 13
a 2009 1851 43
a 2009 2010 13
a 2009 2008 13
a 2009 2007 51
a 2010 1845 44
a 2010 2007 42
a 2010 2009 13
a 2011 1812 15
a 2011 7292 11
a 2011 2012 10
a 2012 7329 13
a 2012 2011 10
a 2012 2013 62
a 2013 7331 4
a 2013 7329 31
a 2013 2012 62
a 2014 10106 28
a 2014 10106 45
a 2014 1812 15
a 2015 7337 30
a 2015 1941 6
a 2016 2017 14
a 2016 8946 22
a 2017 2016 14
a 2017 167 8
a 2017 2395 44
a 2018 11358 11
a 2018 11363 4
a 2018 2393 37
a 2018 1501 12
a 2019 2020 13
a 2019 12234 2
a 2019 285 10
a 2020 1707 3
a 2020 1708 6
a 2020 2019 13
a 2021 2024 4
a 2021 2059 3
a 2022 2031 5
a 2022 920 9
a 2023 13524 2
a 2023 11881 23
a 2023 2022 14
a 2024 2021 4
a 2024 2062 20
a 2024 2025 17
a 2025 2041 9
a 2025 2062 15
a 2025 2024 17
a 2026 2065 25
a 2026 2027 9
a 2026 3337 8
a 2027 2064 25
a 2027 2026 9
a 2027 2063 22
a 2028 2062 27
a 2028 2042 19
a 2028 2061 8
a 2029 2034 24
a 2029 2039 7
a 2029 2030 14
a 2030 2052 12
a 2030 11881 1
a 2030 2029 14
a 2030 2032 23
a 2031 2022 5
a 2031 11881 12
a 2031 12026 15
a 2032 2033 15
a 2032 7297 29
a 2032 2030 23
a 2033 2034 21
a 2033 2032 15
a 2033 12350 27
a 2034 2033 21
a 2034 2029 24
a 2034 2035 20
a 2035 2048 8
a 2035 2040 9
a 2035 2036 55
a 2035 2034 20
a 2036 2043 11
a 2036 2044 14
a 2036 2065 46
a 2036 2035 55
a 2037 2051 6
a 2037 2038 23
a 2037 2053 6
a 2038 2052 9
a 2038 2054 9
a 2038 2039 22
a 2038 2037 23
a 2039 2038 22
a 2039 2055 10
a 2039 2029 7
a 2039 2040 9
a 2040 2035 9
a 2040 2043 50
a 2040 2039 9
a 2041 2025 9
a 2041 2042 11
a 2041 12379 14
a 2042 2043 11
a 2042 2041 11
a 2042 2028 19
a 2042 12379 17
a 2043 2036 11
a 2043 2042 11
a 2043 2040 50
a 2043 2063 46
a 2044 2047 9
a 2044 2046 12
a 2044 2036 14
a 2044 2048 62
a 2045 2046 57
a 2045 2048 7
a 2045 896 8
a 2045 2049 12
a 2046 2045 57
a 2046 897 11
a 2046 2044 12
a 2046 4033 41
a 2047 2044 9
a 2047 3344 34
a 2047 4091 37
a 2048 2044 62
a 2048 2045 7
a 2048 2035 8
a 2049 896 7
a 2049 2045 12
a 2049 7261 7
a 2050 2051 10
a 2051 2037 6
a 2051 13524 6
a 2051 2052 23
a 2051 2050 10
a 2052 2030 12
a 2052 2038 9
a 2052 2051 23
a 2053 2056 6
a 2053 2054 23
a 2053 2037 6
a 2054 2038 9
a 2054 2057 9
a 2054 2055 23
a 2054 2053 23
a 2055 2054 23
a 2055 2039 10
a 2055 2058 9
a 2056 2059 6
a 2056 2053 6
a 2056 2057 23
a 2057 2054 9
a 2057 2060 9
a 2057 2058 24
a 2057 2056 23
a 2058 2057 24
a 2058 2055 9
a 2058 2061 9
a 2059 2021 3
a 2059 2056 6
a 2059 2060 23
a 2060 2057 9
a 2060 2062 9
a 2060 2061 26
a 2060 2059 23
a 2061 2060 26
a 2061 2058 9
a 2061 2028 8
a 2062 2060 9
a 2062 2025 15
a 2062 2028 27
a 2062 2024 20
a 2063 2065 15
a 2063 2064 18
a 2063 2043 46
a 2063 2027 22
a 2064 2063 18
a 2064 12379 18
a 2064 2027 25
a 2065 2063 15
a 2065 3344 15
a 2065 2026 25
a 2065 2036 46
a 2066 2067 13
a 2066 921 16
a 2066 955 23
a 2067 2066 13
a 2067 2068 10
a 2067 948 42
a 2068 2069 8
a 2068 2067 10
a 2068 10292 33
a 2069 2071 8
a 2069 2068 8
a 2069 918 24
a 2069 919 17
a 2070 918 8
a 2071 917 36
a 2071 2069 8
a 2071 921 9
a 2072 7186 18
a 2072 921 16
a 2072 9619 17
a 2072 916 39
a 2073 1619 31
a 2073 2075 12
a 2073 2076 14
a 2074 1618 2
a 2074 1619 9
a 2074 2075 38
a 2075 2073 12
a 2075 11198 40
a 2075 2074 38
a 2075 11502 56
a 2076 2077 9
a 2076 1620 17
a 2076 2073 14
a 2077 2076 9
a 2077 2079 18
a 2077 2078 18
a 2078 9441 3
a 2078 7105 25
a 2078 2077 18
a 2079 2077 18
a 2079 8725 26
a 2079 1620 47
a 2080 12749 34
a 2080 11090 33
a 2080 8181 29
a 2081 8837 23
a 2081 2082 26
a 2081 7829 33
a 2081 8181 33
a 2082 2081 26
a 2082 12330 18
a 2083 8826 19
a 2083 2085 6
a 2083 2109 23
a 2083 2084 6
a 2084 2089 29
a 2084 1801 6
a 2084 13105 41
a 2084 2083 6
a 2085 8825 28
a 2085 2083 6
a 2085 9668 14
a 2086 2087 9
a 2087 12239 15
a 2087 2099 29
a 2088 2086 11
a 2088 2091 28
a 2089 2084 29
a 2089 2094 9
a 2089 8826 9
a 2089 2090 39
a 2090 2093 10
a 2090 2089 39
a 2091 8826 7
a 2091 2088 28
a 2091 2093 21
a 2092 2100 10
a 2092 2095 24
a 2092 2099 50
a 2093 2099 6
a 2093 2091 21
a 2093 2088 13
a 2094 2096 12
a 2094 2089 9
a 2094 2095 35
a 2095 2090 8
a 2095 2094 35
a 2096 2094 12
a 2096 1801 17
a 2096 7045 18
a 2097 8993 10
a 2097 9661 13
a 2097 889 32
a 2098 2100 9
a 2098 2103 39
a 2098 7045 9
a 2099 3817 6
a 2099 2093 6
a 2099 2092 50
a 2100 2092 10
a 2100 2098 9
a 2100 2101 49
a 2101 2102 6
a 2101 8350 33
a 2102 8828 21
a 2102 893 14
a 2102 2101 6
a 2103 2101 10
a 2103 2098 39
a 2103 893 23
a 2104 7025 29
a 2104 885 9
a 2104 7035 10
a 2105 7034 23
a 2105 7031 16
a 2105 7029 9
a 2106 7034 9
a 2106 7033 9
a 2106 858 19
a 2106 13404 9
a 2107 11109 8
a 2107 7027 16
a 2107 2108 9
a 2108 886 9
a 2108 2107 9
a 2108 9661 11
a 2109 9666 17
a 2109 12405 38
a 2109 2083 23
a 2110 2128 12
a 2110 11539 45
a 2110 8224 7
a 2110 2111 7
a 2111 2915 38
a 2111 2110 7
a 2111 8318 5
a 2112 2131 6
a 2112 2113 20
a 2112 8318 7
a 2113 3719 7
a 2113 2961 6
a 2113 2144 19
a 2113 2112 20
a 2114 3889 10
a 2114 2134 9
a 2114 3896 18
a 2114 2120 6
a 2115 11543 20
a 2115 2117 6
a 2115 2116 36
a 2115 7400 13
a 2116 2117 27
a 2116 2119 9
a 2116 2115 36
a 2117 11539 20
a 2117 2116 27
a 2117 2120 6
a 2117 2115 6
a 2118 3880 10
a 2118 2122 9
a 2118 7362 17
a 2118 2123 15
a 2119 2120 27
a 2119 2135 9
a 2119 2116 9
a 2120 11540 20
a 2120 2119 27
a 2120 2117 6
a 2120 2114 6
a 2121 8062 94
a 2121 1860 1
a 2122 2118 9
a 2122 8224 62
a 2122 2124 9
a 2123 2125 9
a 2123 2118 15
a 2123 7362 17
a 2124 3880 10
a 2124 2142 11
a 2124 2122 9
a 2125 2123 9
a 2125 2126 9
a 2125 2140 9
a 2125 3880 21
a 2126 2125 9
a 2126 2994 9
a 2126 10295 21
a 2126 4059 45
a 2127 2136 9
a 2127 7635 11
a 2127 4059 6
a 2127 3115 17
a 2128 2139 8
a 2128 2110 12
a 2128 2129 15
a 2129 10093 2
a 2129 2128 15
a 2129 2863 18
a 2130 10093 7
a 2130 2905 14
a 2130 2131 9
a 2131 2112 6
a 2131 7635 8
a 2131 2132 9
a 2131 2130 9
a 2132 2849 10
a 2132 2961 25
a 2132 2131 9
a 2133 3006 9
a 2133 3896 10
a 2133 2134 37
a 2133 2961 31
a 2134 2114 9
a 2134 3157 9
a 2134 2133 37
a 2135 2119 9
a 2135 3157 9
a 2135 3847 32
a 2136 2127 9
a 2136 2137 9
a 2136 2905 16
a 2137 2136 9
a 2137 2138 9
a 2137 2863 16
a 2138 2137 9
a 2138 7634 16
a 2138 2140 9
a 2139 2141 11
a 2139 2128 8
a 2139 7634 26
a 2140 2125 9
a 2140 7633 15
a 2140 2138 9
a 2141 7362 10
a 2141 2139 11
a 2141 7633 18
a 2142 3833 12
a 2142 2124 11
a 2142 11159 9
a 2143 7641 9
a 2143 10295 1
a 2143 2994 21
a 2144 3938 11
a 2144 2915 9
a 2144 2113 19
a 2145 4053 16
a 2145 7518 6
a 2145 2146 16
a 2145 3935 47
a 2146 3935 12
a 2146 3021 11
a 2146 2145 16
a 2146 3160 8
a 2147 10989 1
a 2147 7061 10
a 2147 8350 15
a 2148 2647 3
a 2148 7917 27
a 2148 12543 3
a 2149 2691 21
a 2149 2669 9
a 2150 13208 1
a 2150 2792 7
a 2150 2706 28
a 2151 2149 6
a 2151 7062 3
a 2151 2633 12
a 2152 2409 1
a 2152 2161 4
a 2152 2880 3
a 2153 3055 7
a 2153 2880 7
a 2153 2157 26
a 2154 3055 26
a 2154 2157 7
a 2154 2155 7
a 2155 2938 29
a 2155 2154 7
a 2155 3133 6
a 2156 2891 10
a 2157 3033 28
a 2157 2158 7
a 2157 2154 7
a 2158 2959 12
a 2158 3068 19
a 2158 2157 7
a 2158 2864 7
a 2159 2411 7
a 2159 2168 7
a 2159 2853 28
a 2159 2163 24
a 2160 2408 5
a 2160 11187 12
a 2160 2161 4
a 2161 2152 4
a 2161 2160 4
a 2161 2162 5
a 2162 2991 28
a 2162 2161 5
a 2163 9360 5
a 2163 2412 8
a 2163 2159 24
a 2164 3012 25
a 2164 2853 28
a 2164 2410 5
a 2164 2990 5
a 2165 3100 28
a 2165 2990 5
a 2165 3163 5
a 2165 8951 28
a 2166 2168 7
a 2166 2167 33
a 2167 11643 1
a 2167 9359 3
a 2167 2166 33
a 2168 2159 7
a 2168 2166 7
a 2168 9360 30
a 2169 2175 1
a 2169 2170 32
a 2169 2172 5
a 2170 2173 7
a 2170 2416 7
a 2170 2810 28
a 2171 8950 28
a 2171 3163 4
a 2171 2811 5
a 2171 2810 28
a 2172 2173 31
a 2172 1748 5
a 2172 2169 5
a 2173 2172 31
a 2173 2414 28
a 2173 2170 7
a 2173 2174 7
a 2174 1748 30
a 2174 2413 28
a 2174 2173 7
a 2175 2169 1
a 2175 11255 5
a 2175 2415 3
a 2176 8417 7
a 2176 2177 12
a 2177 2176 12
a 2178 2179 12
a 2178 7651 11
a 2179 2180 10
a 2179 1487 49
a 2179 13453 47
a 2179 2178 12
a 2180 1490 12
a 2180 2179 10
a 2180 1488 49
a 2180 2183 50
a 2181 8173 2
a 2181 2182 16
a 2182 13453 3
a 2182 13451 12
a 2182 2183 13
a 2182 2181 16
a 2183 3178 16
a 2183 2182 13
a 2183 2180 50
a 2183 1479 35
a 2184 8817 3
a 2184 278 1
a 2185 867 1
a 2185 7937 2
a 2186 861 15
a 2186 872 10
a 2186 874 23
a 2186 12094 49
a 2187 2741 18
a 2187 12023 6
a 2187 2739 11
a 2187 2623 27
a 2188 2191 10
a 2188 3940 18
a 2188 2189 11
a 2189 11084 16
a 2189 863 5
a 2189 2188 11
a 2189 3710 5
a 2190 1809 7
a 2190 3684 31
a 2190 3752 7
a 2190 2605 26
a 2191 3886 19
a 2191 2188 10
a 2191 2192 13
a 2192 3986 11
a 2192 2193 8
a 2192 2191 13
a 2193 2194 10
a 2193 3622 27
a 2193 2192 8
a 2194 2195 11
a 2194 2193 10
a 2194 2739 26
a 2195 2194 11
a 2195 12023 11
a 2195 864 10
a 2196 1803 7
a 2196 3928 8
a 2196 1805 3
a 2196 2588 18
a 2197 1807 7
a 2197 4080 7
a 2197 1804 10
a 2197 3874 19
a 2198 3678 1
a 2198 2597 4
a 2198 3811 5
a 2199 3973 5
a 2199 3811 7
a 2199 10044 5
a 2200 8029 57
a 2200 7932 14
a 2200 11078 22
a 2201 12815 9
a 2201 2204 20
a 2201 2202 60
a 2202 2201 60
a 2202 2203 10
a 2202 2205 7
a 2203 2204 61
a 2203 2207 54
a 2203 2206 11
a 2203 2202 10
a 2204 2208 38
a 2204 2201 20
a 2204 2203 61
a 2205 2202 7
a 2206 10034 2
a 2206 2208 31
a 2206 2203 11
a 2207 2203 54
a 2207 3277 11
a 2207 3287 23
a 2208 2209 13
a 2208 2204 38
a 2208 2206 31
a 2209 2208 13
a 2210 2212 13
a 2210 2213 12
a 2210 10034 13
a 2211 3248 20
a 2211 2217 11
a 2211 12224 6
a 2212 10033 2
a 2212 2210 13
a 2212 2216 16
a 2213 2210 12
a 2214 2218 5
a 2215 2216 11
a 2215 2217 36
a 2215 2218 47
a 2216 2215 11
a 2216 3248 15
a 2216 2212 16
a 2217 2215 36
a 2217 2218 10
a 2217 2211 11
a 2218 2214 5
a 2218 2217 10
a 2218 2215 47
a 2219 2252 7
a 2219 2243 2
a 2219 2234 7
a 2220 2282 7
a 2220 2223 19
a 2220 2224 26
a 2220 10920 19
a 2221 2282 7
a 2221 2225 19
a 2221 2231 20
a 2222 2227 8
a 2222 9502 12
a 2222 8780 10
a 2223 2220 19
a 2223 2224 7
a 2223 2281 7
a 2223 2233 7
a 2224 2223 7
a 2224 2220 26
a 2224 2234 58
a 2225 2221 19
a 2225 2281 7
a 2225 2230 7
a 2226 9503 25
a 2226 9503 25
a 2226 11564 18
a 2227 2229 7
a 2227 2222 8
a 2227 2228 32
a 2227 2232 6
a 2228 9503 9
a 2228 2227 32
a 2228 9501 7
a 2229 2230 7
a 2229 2227 7
a 2229 9501 32
a 2230 2229 7
a 2230 2231 32
a 2230 2225 7
a 2231 2230 32
a 2231 9501 7
a 2231 2221 20
a 2232 2233 34
a 2232 2227 6
a 2232 2238 8
a 2233 2232 34
a 2233 2236 23
a 2233 2223 7
a 2234 2245 7
a 2234 2236 22
a 2234 2224 58
a 2234 2219 7
a 2235 2244 7
a 2235 2242 20
a 2235 2237 22
a 2236 2244 7
a 2236 2234 22
a 2236 2233 23
a 2237 2245 6
a 2237 2241 7
a 2237 2235 22
a 2238 2240 7
a 2238 2232 8
a 2238 11621 19
a 2239 11621 10
a 2239 2241 23
a 2239 2240 37
a 2240 2238 7
a 2240 2242 7
a 2240 2239 37
a 2241 2242 37
a 2241 2237 7
a 2241 2239 23
a 2242 2241 37
a 2242 2240 7
a 2242 2235 20
a 2243 2254 9
a 2243 2249 41
a 2243 2219 2
a 2244 2236 7
a 2244 2235 7
a 2244 2245 22
a 2245 2244 22
a 2245 2234 7
a 2245 2237 6
a 2246 7909 11
a 2246 2275 22
a 2246 11389 33
a 2247 2260 8
a 2247 2262 22
a 2247 2248 8
a 2248 7020 6
a 2248 2247 8
a 2248 7026 20
a 2249 2268 17
a 2249 2243 41
a 2249 2250 7
a 2249 2255 16
a 2250 2249 7
a 2250 2252 42
a 2250 2251 38
a 2251 11392 2
a 2251 2263 9
a 2251 2250 38
a 2252 2219 7
a 2252 10011 12
a 2252 2250 42
a 2253 2288 6
a 2253 9598 69
a 2253 2286 31
a 2254 2243 9
a 2254 7038 13
a 2254 2255 35
a 2255 7030 8
a 2255 2256 7
a 2255 2249 16
a 2255 2254 35
a 2256 2255 7
a 2256 11391 7
a 2256 2267 23
a 2256 2266 36
a 2257 2276 37
a 2257 2274 7
a 2257 2277 7
a 2258 2260 8
a 2258 7909 11
a 2258 2259 22
a 2258 2266 7
a 2259 2261 8
a 2259 11389 12
a 2259 2258 22
a 2259 8272 6
a 2260 2247 8
a 2260 2258 8
a 2260 2261 22
a 2261 2262 8
a 2261 2259 8
a 2261 2260 22
a 2262 7038 13
a 2262 2261 8
a 2262 2247 22
a 2263 2251 9
a 2263 8267 13
a 2263 2264 19
a 2264 2289 12
a 2264 2271 19
a 2264 2263 19
a 2265 2266 7
a 2265 2276 8
a 2265 2273 7
a 2266 2258 7
a 2266 2265 7
a 2266 2256 36
a 2267 2269 10
a 2267 2268 9
a 2267 2256 23
a 2268 11392 12
a 2268 2249 17
a 2268 2267 9
a 2269 2289 12
a 2269 2270 19
a 2269 2267 10
a 2269 11391 16
a 2270 2269 19
a 2270 2272 21
a 2270 3352 12
a 2271 3352 12
a 2271 2264 19
a 2271 2274 7
a 2272 2273 7
a 2272 2270 21
a 2272 11391 17
a 2273 2265 7
a 2273 2272 7
a 2273 2274 45
a 2274 2273 45
a 2274 2271 7
a 2274 2257 7
a 2275 10911 9
a 2275 2246 22
a 2275 2279 8
a 2276 2265 8
a 2276 2257 37
a 2276 2278 8
a 2277 2257 7
a 2277 2280 8
a 2277 2278 37
a 2278 2276 8
a 2278 11386 4
a 2278 2277 37
a 2279 11386 4
a 2279 2275 8
a 2279 2280 37
a 2280 2277 8
a 2280 2279 37
a 2280 10911 35
a 2281 2223 7
a 2281 2225 7
a 2281 2282 19
a 2282 2221 7
a 2282 2220 7
a 2282 2281 19
a 2283 2287 10
a 2283 9455 37
a 2283 7046 14
a 2284 2286 5
a 2285 2288 9
a 2285 7046 13
a 2285 12770 56
a 2286 2287 11
a 2286 2253 31
a 2286 2284 5
a 2287 2288 26
a 2287 2286 11
a 2287 2283 10
a 2288 2285 9
a 2288 2253 6
a 2288 2287 26
a 2289 2269 12
a 2289 2264 12
a 2289 3353 7
a 2289 2290 7
a 2290 2289 7
a 2290 11393 14
a 2290 11393 13
a 2291 7047 13
a 2291 11674 50
a 2292 10782 9
a 2292 2314 18
a 2292 2310 17
a 2293 2294 78
a 2293 2296 18
a 2294 7233 4
a 2294 3495 16
a 2294 2293 78
a 2295 11691 4
a 2295 3492 62
a 2295 12738 46
a 2296 11550 18
a 2296 7876 5
a 2297 5130 10
a 2297 5128 10
a 2298 11405 2
a 2298 11682 1
a 2299 2300 13
a 2299 13152 21
a 2299 5134 19
a 2300 5133 7
a 2300 2299 13
a 2300 5137 16
a 2301 8041 37
a 2301 823 4
a 2301 8655 4
a 2302 7352 46
a 2302 2303 5
a 2302 2303 48
a 2303 2302 5
a 2303 2302 48
a 2303 826 6
a 2304 11134 2
a 2304 826 23
a 2304 825 20
a 2305 4820 14
a 2305 11055 29
a 2306 4827 5
a 2306 4824 12
a 2306 4822 17
a 2307 11674 35
a 2307 4835 26
a 2307 9597 28
a 2307 2310 27
a 2308 11054 2
a 2308 2366 10
a 2309 2361 18
a 2309 2327 19
a 2309 2366 27
a 2310 2333 19
a 2310 2311 28
a 2310 2292 17
a 2310 2307 27
a 2311 2315 17
a 2311 12209 23
a 2311 2312 19
a 2311 2310 28
a 2312 11395 21
a 2312 2313 19
a 2312 2311 19
a 2313 9598 38
a 2313 11396 14
a 2313 2312 19
a 2314 2292 18
a 2314 10783 9
a 2314 2333 17
a 2315 10782 19
a 2315 2316 15
a 2315 2322 62
a 2315 2311 17
a 2316 2315 15
a 2316 2323 48
a 2316 2321 51
a 2316 2317 10
a 2317 2318 10
a 2317 2360 41
a 2317 2316 10
a 2318 2319 3
a 2318 2317 10
a 2318 11779 1
a 2318 2338 17
a 2319 2318 3
a 2320 2367 15
a 2320 11086 22
a 2320 10325 24
a 2321 2316 51
a 2321 2322 15
a 2321 10326 7
a 2322 2315 62
a 2322 8499 8
a 2322 2321 15
a 2322 12658 2
a 2323 10783 15
a 2323 2324 15
a 2323 2316 48
a 2323 2329 20
a 2324 2325 13
a 2324 2323 15
a 2324 2328 43
a 2325 2326 17
a 2325 2324 13
a 2325 2362 29
a 2326 2327 14
a 2326 2325 17
a 2326 2362 23
a 2327 2326 14
a 2327 2342 13
a 2327 2309 19
a 2328 2361 11
a 2328 2333 11
a 2328 2324 43
a 2329 2330 12
a 2329 2323 20
a 2329 2337 13
a 2329 2365 25
a 2330 10785 9
a 2330 10126 29
a 2330 2329 12
a 2331 2336 15
a 2331 2368 21
a 2331 2332 63
a 2331 10127 20
a 2332 2331 63
a 2333 2310 19
a 2333 2314 17
a 2333 2328 11
a 2334 3381 9
a 2334 2389 14
a 2334 2336 63
a 2335 2350 9
a 2335 3380 9
a 2335 3378 14
a 2336 2331 15
a 2336 2367 14
a 2336 2334 63
a 2336 11087 20
a 2337 2329 13
a 2337 2338 14
a 2337 10784 29
a 2338 2337 14
a 2338 2318 17
a 2338 2339 18
a 2339 2338 18
a 2340 2367 22
a 2341 2367 45
a 2342 2365 29
a 2342 12739 9
a 2342 2327 13
a 2342 7946 8
a 2343 12507 2
a 2343 10787 6
a 2343 12506 6
a 2344 2368 4
a 2344 2345 6
a 2344 2349 62
a 2344 2374 44
a 2345 2346 6
a 2345 2344 6
a 2346 2345 6
a 2346 2351 25
a 2346 2347 16
a 2347 12977 7
a 2347 6910 51
a 2347 2346 16
a 2348 2373 13
a 2348 4339 32
a 2348 12975 7
a 2348 2380 11
a 2349 7013 13
a 2349 2350 11
a 2350 3372 9
a 2350 2335 9
a 2350 2349 11
a 2351 2352 7
a 2351 6910 8
a 2351 2346 25
a 2351 7013 13
a 2352 2385 9
a 2352 2388 10
a 2352 2351 7
a 2352 3372 18
a 2353 10899 6
a 2353 2384 9
a 2353 2388 26
a 2353 10901 8
a 2354 6913 6
a 2354 6928 8
a 2354 6912 19
a 2355 12970 3
a 2355 9944 40
a 2355 8714 4
a 2356 8711 1
a 2356 6994 8
a 2356 4383 31
a 2357 3383 6
a 2357 3377 6
a 2357 3379 39
a 2357 3376 30
a 2358 2359 6
a 2358 10332 5
a 2358 10330 15
a 2359 10320 5
a 2359 9650 16
a 2359 2358 6
a 2359 9649 32
a 2360 2317 41
a 2361 2328 11
a 2361 2362 11
a 2361 2309 18
a 2362 2361 11
a 2362 2325 29
a 2362 2326 23
a 2363 10961 6
a 2364 2365 7
a 2365 10787 15
a 2365 2342 29
a 2365 2364 7
a 2365 2329 25
a 2366 10791 32
a 2366 2308 10
a 2366 2309 27
a 2367 2336 14
a 2367 2320 15
a 2367 2341 45
a 2367 2340 22
a 2368 2344 4
a 2368 2369 1
a 2368 2331 21
a 2369 2368 1
a 2369 12507 12
a 2369 12092 55
a 2370 2371 5
a 2371 9405 64
a 2371 2373 10
a 2371 2370 5
a 2372 4431 11
a 2372 9407 14
a 2372 2380 49
a 2373 2348 13
a 2373 10902 9
a 2373 2371 10
a 2373 4363 12
a 2374 2344 44
a 2375 4388 9
a 2375 2376 30
a 2375 9401 11
a 2376 4401 11
a 2376 2377 26
a 2376 2375 30
a 2376 4516 15
a 2377 2378 11
a 2377 2376 26
a 2377 4516 19
a 2378 2377 11
a 2378 4546 11
a 2378 4527 4
a 2379 4416 14
a 2379 2380 9
a 2379 4431 54
a 2380 2379 9
a 2380 2348 11
a 2380 2372 49
a 2381 9406 34
a 2381 4541 11
a 2381 4406 11
a 2382 2383 16
a 2383 2386 40
a 2383 2382 16
a 2383 2384 9
a 2384 2387 40
a 2384 2353 9
a 2384 2383 9
a 2384 3384 27
a 2385 2352 9
a 2385 2387 15
a 2385 2386 23
a 2386 2383 40
a 2386 2387 9
a 2386 2385 23
a 2387 2385 15
a 2387 2384 40
a 2387 2388 9
a 2387 2386 9
a 2388 3371 18
a 2388 2387 9
a 2388 2352 10
a 2388 2353 26
a 2389 3382 9
a 2389 2334 14
a 2389 3357 25
a 2390 2391 12
a 2390 1500 14
a 2390 2877 15
a 2390 2393 39
a 2391 2390 12
a 2391 2406 13
a 2391 2394 39
a 2392 2921 32
a 2392 2406 2
a 2392 2400 16
a 2393 2394 12
a 2393 12268 9
a 2393 2390 39
a 2393 2018 37
a 2394 2395 12
a 2394 2393 12
a 2394 2391 39
a 2394 167 42
a 2395 2394 12
a 2395 7661 23
a 2395 2017 44
a 2396 1498 10
a 2396 2401 39
a 2396 13016 30
a 2396 2947 6
a 2397 2398 7
a 2397 2401 12
a 2397 2947 38
a 2398 3003 9
a 2398 2397 7
a 2398 2399 12
a 2399 11949 15
a 2399 2398 12
a 2400 11949 3
a 2400 2392 16
a 2400 2877 33
a 2401 2397 12
a 2401 2877 25
a 2401 2396 39
a 2401 1499 14
a 2402 12038 3
a 2402 2399 34
a 2402 2405 32
a 2403 12038 8
a 2403 3003 25
a 2403 9105 10
a 2404 2405 23
a 2404 2900 4
a 2404 8955 5
a 2405 2404 23
a 2405 3075 14
a 2405 2402 32
a 2406 2392 2
a 2406 2391 13
a 2406 7661 15
a 2407 3147 3
a 2407 2410 5
a 2407 9995 20
a 2407 2921 22
a 2408 2160 5
a 2408 2411 7
a 2408 2409 8
a 2408 2895 34
a 2409 2152 1
a 2409 2408 8
a 2409 2412 7
a 2410 2895 28
a 2410 2407 5
a 2410 2164 5
a 2410 3082 30
a 2411 2408 7
a 2411 2159 7
a 2411 2895 28
a 2411 2412 15
a 2412 2163 8
a 2412 2411 15
a 2412 2409 7
a 2413 2414 6
a 2413 2812 28
a 2413 2174 28
a 2414 2173 28
a 2414 2811 28
a 2414 2810 7
a 2414 2413 6
a 2415 2416 33
a 2415 11643 4
a 2415 2175 3
a 2416 2415 33
a 2416 2166 7
a 2418 2426 12
a 2418 2425 36
a 2418 2874 38
a 2419 2422 51
a 2419 2422 40
a 2419 7101 11
a 2420 2424 12
a 2420 7101 75
a 2420 2422 18
a 2420 2426 12
a 2421 2422 12
a 2421 2423 13
a 2421 7102 58
a 2422 2421 12
a 2422 2419 51
a 2422 2419 40
a 2422 2420 18
a 2423 2424 13
a 2423 587 52
a 2423 2421 13
a 2424 2423 13
a 2424 2986 27
a 2424 2420 12
a 2425 2426 31
a 2425 7102 92
a 2425 2418 36
a 2426 2425 31
a 2426 2418 12
a 2426 2427 38
a 2426 2420 12
a 2427 2874 12
a 2427 2955 20
a 2427 2986 12
a 2427 2426 38
a 2428 11966 2
a 2428 2929 16
a 2429 1550 18
a 2429 7270 16
a 2429 2430 10
a 2430 1551 12
a 2430 602 12
a 2430 615 25
a 2430 2429 10
a 2431 2432 3
a 2431 612 4
a 2432 2975 27
a 2432 2431 3
a 2432 2433 3
a 2433 2432 3
a 2433 2434 3
a 2434 2891 26
a 2434 2433 3
a 2434 615 5
a 2435 9802 15
a 2435 9801 2
a 2436 9686 3
a 2436 1068 7
a 2437 4234 15
a 2437 7453 3
a 2437 5936 9
a 2438 7319 26
a 2438 10451 5
a 2438 5812 14
a 2439 5566 8
a 2439 5758 3
a 2439 5517 23
a 2440 7513 46
a 2440 13447 4
a 2440 9298 18
a 2441 7773 9
a 2441 1142 58
a 2441 6974 90
a 2442 10068 33
a 2442 2892 11
a 2442 7849 7
a 2443 11178 1
a 2443 2444 34
a 2444 7717 1
a 2444 7526 16
a 2445 13494 1
a 2445 12129 10
a 2446 7248 20
a 2446 7583 9
a 2447 11283 7
a 2447 9440 14
a 2447 2448 8
a 2448 2449 9
a 2448 2447 8
a 2448 9440 21
a 2449 2448 9
a 2449 8087 10
a 2449 12726 11
a 2450 10897 3
a 2450 8092 1
a 2451 1959 13
a 2451 1957 19
a 2451 1958 32
a 2452 1909 15
a 2452 6954 13
a 2452 1906 43
a 2452 1887 49
a 2453 1539 47
a 2453 3211 47
a 2453 681 14
a 2453 10820 14
a 2454 509 12
a 2454 88 23
a 2454 81 23
a 2455 1384 17
a 2455 1474 15
a 2455 1459 34
a 2455 1458 33
a 2456 1469 8
a 2456 1116 7
a 2456 1463 30
a 2456 1787 30
a 2457 1520 29
a 2457 1522 29
a 2457 1519 9
a 2457 1377 9
a 2458 1362 29
a 2458 1361 29
a 2458 1797 3
a 2459 1338 29
a 2459 8370 14
a 2459 1341 6
a 2459 1109 9
a 2460 1386 11
a 2460 1426 10
a 2460 1422 32
a 2460 1423 23
a 2461 11451 14
a 2461 160 24
a 2462 1106 12
a 2462 1459 12
a 2462 13514 12
a 2462 1209 18
a 2463 850 43
a 2463 7534 2
a 2464 2465 4
a 2465 748 1
a 2465 394 4
a 2466 353 29
a 2466 2471 4
a 2466 13041 1
a 2467 849 45
a 2467 2468 5
a 2468 2469 4
a 2468 8177 2
a 2468 848 49
a 2469 7533 2
a 2469 2470 4
a 2470 358 42
a 2470 2464 4
a 2471 2472 7
a 2471 352 44
a 2472 350 30
a 2472 12071 5
a 2473 2474 4
a 2474 347 45
a 2474 397 4
a 2475 1295 66
a 2475 539 10
a 2475 2476 15
a 2476 7512 11
a 2476 1240 8
a 2476 274 20
a 2476 2475 15
a 2477 7529 5
a 2477 12071 2
a 2477 12284 2
a 2478 1821 35
a 2478 1838 13
a 2478 1822 51
a 2479 554 11
a 2479 273 5
a 2479 2480 11
a 2479 8073 26
a 2480 1287 11
a 2480 2479 11
a 2480 1285 5
a 2481 2482 8
a 2481 3531 49
a 2481 1533 7
a 2482 2481 8
a 2482 1528 6
a 2483 1529 6
a 2483 3095 14
a 2483 3532 47
a 2483 2484 6
a 2484 2483 6
a 2484 2485 5
a 2484 9317 30
a 2485 2484 5
a 2485 3530 46
a 2485 157 7
a 2486 862 1
a 2486 12263 5
a 2487 4605 63
a 2487 4679 10
a 2487 4767 6
a 2488 12748 1
a 2488 2491 36
a 2488 2490 11
a 2488 3136 11
a 2489 3086 37
a 2489 2865 9
a 2489 2878 11
a 2490 3083 42
a 2490 2488 11
a 2490 3091 9
a 2491 2488 36
a 2491 2492 8
a 2491 3112 15
a 2492 3083 11
a 2492 3086 11
a 2492 2493 25
a 2492 2491 8
a 2493 3061 11
a 2493 2876 35
a 2493 2492 25
a 2493 3120 11
a 2494 2495 2
a 2494 10374 16
a 2494 12672 4
a 2495 2494 2
a 2495 56 10
a 2495 2507 9
a 2496 4451 7
a 2496 4368 53
a 2496 9110 8
a 2497 4376 33
a 2497 4343 10
a 2497 4349 10
a 2498 2504 10
a 2498 2506 11
a 2498 4343 10
a 2499 8520 15
a 2499 2501 5
a 2499 2504 54
a 2500 2509 9
a 2500 2508 69
a 2500 8519 11
a 2501 2499 5
a 2501 2505 7
a 2501 8198 7
a 2502 8192 5
a 2502 8194 7
a 2502 8202 10
a 2503 2504 19
a 2503 8520 34
a 2503 8520 28
a 2504 2498 10
a 2504 2503 19
a 2504 2499 54
a 2505 2501 7
a 2505 4564 10
a 2505 2506 69
a 2506 4523 9
a 2506 2498 11
a 2506 2505 69
a 2507 2527 33
a 2507 2495 9
a 2507 12923 5
a 2508 2510 10
a 2508 2500 69
a 2508 12925 71
a 2508 2809 12
a 2509 2524 10
a 2509 2500 9
a 2509 2510 69
a 2510 2508 10
a 2510 2525 9
a 2510 2511 71
a 2510 2509 69
a 2511 2510 71
a 2511 2526 10
a 2511 12925 9
a 2512 2521 10
a 2512 2517 71
a 2512 2513 9
a 2513 4451 8
a 2513 4430 16
a 2513 2512 9
a 2514 2515 45
a 2514 4565 6
a 2514 12921 3
a 2514 4523 10
a 2515 2514 45
a 2515 4564 9
a 2515 2516 8
a 2515 2518 10
a 2516 2515 8
a 2516 8519 44
a 2516 8219 10
a 2516 11347 22
a 2517 2520 9
a 2517 12922 3
a 2517 2518 68
a 2517 2512 71
a 2518 2519 9
a 2518 2517 68
a 2518 2515 10
a 2519 2518 9
a 2519 2523 9
a 2519 2520 68
a 2520 13031 9
a 2520 2517 9
a 2520 2519 68
a 2520 2521 72
a 2521 2512 10
a 2521 2522 9
a 2521 2520 72
a 2522 2521 9
a 2522 4453 22
a 2522 2526 19
a 2523 2519 9
a 2523 4498 10
a 2523 13031 68
a 2524 4498 9
a 2524 2509 10
a 2524 2525 69
a 2525 2510 9
a 2525 4502 9
a 2525 2524 69
a 2525 4536 50
a 2526 2511 10
a 2526 4536 22
a 2526 2522 19
a 2527 4451 11
a 2527 2507 33
a 2527 7012 17
a 2528 2954 13
a 2528 11072 11
a 2528 171 8
a 2529 141 2
a 2529 525 9
a 2529 520 8
a 2530 2532 11
a 2530 3288 11
a 2530 108 38
a 2531 9480 2
a 2531 12431 2
a 2531 6949 13
a 2532 8378 2
a 2532 2530 11
a 2532 7557 10
a 2533 2486 1
a 2533 11354 1
a 2534 517 5
a 2534 90 5
a 2535 2537 18
a 2535 8623 16
a 2536 2559 21
a 2536 2917 27
a 2536 2539 13
a 2536 8120 29
a 2537 9497 4
a 2537 239 24
a 2537 425 17
a 2538 2539 11
a 2538 2566 43
a 2538 2564 11
a 2539 2538 11
a 2539 2536 13
a 2539 2567 43
a 2539 3125 53
a 2540 433 11
a 2540 412 13
a 2540 8622 51
a 2541 415 8
a 2541 2540 32
a 2541 434 16
a 2541 2570 38
a 2542 2555 8
a 2542 2554 37
a 2542 431 41
a 2542 2543 9
a 2543 2545 13
a 2543 2550 27
a 2543 2549 24
a 2543 2542 9
a 2544 2553 11
a 2544 2822 12
a 2544 2819 36
a 2544 2814 41
a 2545 2553 11
a 2545 2543 13
a 2545 419 37
a 2545 2546 35
a 2546 2552 11
a 2546 2549 13
a 2546 2545 35
a 2547 2548 8
a 2547 8120 24
a 2547 8623 17
a 2548 2549 7
a 2548 2547 8
a 2548 2567 35
a 2549 2548 7
a 2549 2546 13
a 2549 2543 24
a 2549 2554 12
a 2550 431 13
a 2550 2551 8
a 2550 2543 27
a 2550 419 23
a 2551 2816 59
a 2551 7745 11
a 2551 2550 8
a 2551 418 33
a 2552 2566 11
a 2552 2546 11
a 2552 11287 3
a 2553 2544 11
a 2553 2545 11
a 2553 11286 2
a 2553 2813 61
a 2554 2556 14
a 2554 2542 37
a 2554 2549 12
a 2555 413 8
a 2555 2542 8
a 2555 2556 41
a 2555 2823 40
a 2556 8622 11
a 2556 2554 14
a 2556 2555 41
a 2556 427 19
a 2557 432 11
a 2557 13137 13
a 2558 8118 11
a 2558 2559 29
a 2558 9851 25
a 2559 2536 21
a 2559 11398 22
a 2559 2558 29
a 2560 106 3
a 2560 11698 9
a 2560 13025 21
a 2561 84 7
a 2561 85 4
a 2562 711 26
a 2563 7744 25
a 2563 81 6
a 2564 2538 11
a 2564 2820 13
a 2564 2568 29
a 2565 2566 11
a 2565 2822 12
a 2566 2565 11
a 2566 2567 11
a 2566 2552 11
a 2567 2566 11
a 2567 2548 35
a 2567 2539 43
a 2567 8120 13
a 2568 158 8
a 2568 2818 9
a 2568 2564 29
a 2569 8228 10
a 2569 2570 12
a 2569 415 33
a 2570 2569 12
a 2570 417 11
a 2570 2541 38
a 2571 11097 2
a 2571 2572 10
a 2572 165 34
a 2573 2574 14
a 2573 1876 23
a 2573 7394 2
a 2574 3879 12
a 2574 3815 37
a 2574 2573 14
a 2575 3879 8
a 2576 2577 24
a 2576 2581 10
a 2576 11541 13
a 2577 2576 24
a 2577 2580 11
a 2577 9820 11
a 2578 3838 13
a 2578 3720 14
a 2578 3700 19
a 2579 4068 10
a 2579 11661 22
a 2579 3647 12
a 2580 2587 9
a 2580 2577 11
a 2580 2581 24
a 2580 4068 10
a 2581 2580 24
a 2581 2576 10
a 2581 2586 8
a 2581 2582 33
a 2582 2584 8
a 2582 2581 33
a 2582 2585 36
a 2583 3912 6
a 2584 2582 8
a 2584 3912 9
a 2584 13176 35
a 2585 2582 36
a 2586 2581 8
a 2586 13176 1
a 2586 2587 25
a 2587 3838 10
a 2587 2580 9
a 2587 2586 25
a 2588 7018 8
a 2588 2589 12
a 2588 2196 18
a 2589 1802 9
a 2589 2588 12
a 2590 3662 16
a 2590 4088 9
a 2591 2592 16
a 2591 3738 1
a 2591 11976 4
a 2592 2591 16
a 2592 2594 10
a 2592 7018 10
a 2593 11976 1
a 2593 2594 16
a 2593 2595 5
a 2594 2596 10
a 2594 2592 10
a 2594 2593 16
a 2595 2596 16
a 2595 10044 1
a 2595 2593 5
a 2596 2595 16
a 2596 2594 10
a 2596 3987 10
a 2597 3623 11
a 2597 2598 16
a 2597 2198 4
a 2597 1806 5
a 2598 2597 16
a 2598 2599 10
a 2599 1806 16
a 2599 2590 10
a 2600 2603 10
a 2600 2601 13
a 2600 11976 14
a 2601 3928 7
a 2601 2600 13
a 2601 12758 17
a 2602 12652 1
a 2602 3966 11
a 2602 11089 21
a 2603 2600 10
a 2603 3806 12
a 2603 3973 13
a 2603 2604 11
a 2604 3922 8
a 2604 3626 9
a 2604 2605 10
a 2604 2603 11
a 2605 2190 26
a 2605 1808 25
a 2605 2606 21
a 2605 2604 10
a 2606 3616 2
a 2606 3881 6
a 2606 2605 21
a 2607 2613 11
a 2607 2623 8
a 2607 2614 44
a 2608 2744 47
a 2609 2613 8
a 2609 2746 17
a 2609 12528 3
a 2609 2744 13
a 2610 2611 11
a 2611 2612 51
a 2611 2610 11
a 2611 2625 15
a 2612 11971 10
a 2612 2611 51
a 2612 2625 45
a 2613 2609 8
a 2613 13204 5
a 2613 2607 11
a 2614 2615 6
a 2614 2607 44
a 2614 2624 14
a 2614 2627 13
a 2615 2614 6
a 2616 2619 3
a 2617 7056 16
a 2617 2618 8
a 2618 2617 8
a 2619 7060 10
a 2619 2616 3
a 2620 7058 17
a 2620 7057 8
a 2621 2622 18
a 2621 2624 22
a 2621 7058 12
a 2622 2621 18
a 2622 2624 10
a 2622 2623 21
a 2623 2607 8
a 2623 2187 27
a 2623 2622 21
a 2623 2742 10
a 2624 2621 22
a 2624 2622 10
a 2624 2614 14
a 2625 12529 12
a 2625 2611 15
a 2625 2627 18
a 2625 2612 45
a 2626 2627 41
a 2627 2626 41
a 2627 2625 18
a 2627 2614 13
a 2628 2629 9
a 2628 2630 32
a 2629 880 9
a 2629 2639 32
a 2630 2639 10
a 2630 7024 9
a 2630 2628 32
a 2630 9658 25
a 2631 887 22
a 2631 9293 13
a 2631 9662 47
a 2631 2639 11
a 2632 7917 2
a 2632 2647 27
a 2632 2646 66
a 2633 2635 11
a 2633 2151 12
a 2633 2646 68
a 2634 2669 6
a 2634 2635 12
a 2634 8707 16
a 2635 2633 11
a 2635 2663 23
a 2635 2634 12
a 2635 2658 11
a 2636 11811 4
a 2636 2637 11
a 2636 2645 52
a 2637 2638 52
a 2637 8824 10
a 2637 2636 11
a 2638 2637 52
a 2638 2644 11
a 2638 13193 8
a 2638 2641 35
a 2639 2630 10
a 2639 2629 32
a 2639 2631 11
a 2639 9662 22
a 2640 2641 12
a 2640 2658 23
a 2640 2645 34
a 2641 2659 23
a 2641 2640 12
a 2641 2638 35
a 2641 2642 19
a 2642 2661 20
a 2642 2644 24
a 2642 2641 19
a 2643 2652 11
a 2643 8824 1
a 2643 2644 52
a 2644 2638 11
a 2644 2651 11
a 2644 2643 52
a 2644 2642 24
a 2645 2646 11
a 2645 12930 2
a 2645 2640 34
a 2645 2636 52
a 2646 2645 11
a 2646 2647 12
a 2646 2633 68
a 2646 2632 66
a 2647 2148 3
a 2647 2646 12
a 2647 2151 34
a 2648 2652 11
a 2648 2653 24
a 2648 2649 34
a 2648 8922 13
a 2649 2656 20
a 2649 2653 13
a 2649 2648 34
a 2650 2651 11
a 2650 2657 12
a 2650 10287 21
a 2651 2644 11
a 2651 2650 11
a 2651 2652 50
a 2652 2648 11
a 2652 2643 11
a 2652 2651 50
a 2653 2648 24
a 2653 2657 11
a 2653 2649 13
a 2654 2681 26
a 2654 2675 11
a 2654 2656 12
a 2655 12100 8
a 2655 2656 14
a 2655 2657 31
a 2656 2649 20
a 2656 2654 12
a 2656 2655 14
a 2657 2653 11
a 2657 2650 12
a 2657 2655 31
a 2658 2659 12
a 2658 2640 23
a 2658 2635 11
a 2659 2660 11
a 2659 2658 12
a 2659 2641 23
a 2660 2659 11
a 2660 2661 38
a 2660 2663 13
a 2661 12919 2
a 2661 2642 20
a 2661 2660 38
a 2662 3846 2
a 2662 11294 9
a 2662 2689 13
a 2663 11603 38
a 2663 2635 23
a 2663 8707 13
a 2663 2660 13
a 2664 2665 9
a 2664 8706 14
a 2664 2701 12
a 2665 2664 9
a 2665 2702 21
a 2665 2703 20
a 2666 8687 1
a 2666 2700 11
a 2666 2703 12
a 2667 2700 11
a 2667 2698 33
a 2667 11362 13
a 2668 8697 27
a 2668 8696 6
a 2668 2699 17
a 2669 8697 12
a 2669 2634 6
a 2669 2149 9
a 2670 10286 3
a 2670 2671 14
a 2670 4129 34
a 2670 8691 23
a 2671 10931 16
a 2671 8348 21
a 2671 3824 33
a 2671 2670 14
a 2672 13190 1
a 2672 3915 6
a 2672 11604 10
a 2673 11294 4
a 2674 3214 6
a 2674 12434 2
a 2674 3213 6
a 2675 2654 11
a 2675 2683 13
a 2675 3213 11
a 2676 2677 8
a 2676 2719 22
a 2676 3917 23
a 2677 2676 8
a 2677 8918 9
a 2677 3977 5
a 2678 8361 1
a 2678 3952 13
a 2678 11967 21
a 2679 13209 1
a 2679 2680 7
a 2679 8361 5
a 2680 10963 18
a 2680 8921 43
a 2680 2679 7
a 2681 3977 10
a 2681 2654 26
a 2681 2712 11
a 2682 2713 28
a 2682 2712 11
a 2682 2714 43
a 2683 2711 12
a 2683 10289 24
a 2683 2675 13
a 2684 4037 12
a 2684 3727 12
a 2684 2685 37
a 2684 4022 23
a 2685 2684 37
a 2685 3677 5
a 2685 12050 16
a 2686 2687 7
a 2686 11294 4
a 2686 3915 22
a 2687 2686 7
a 2688 11221 19
a 2688 11194 3
a 2688 2689 11
a 2689 2662 13
a 2689 2688 11
a 2689 11193 3
a 2689 2690 28
a 2690 2689 28
a 2691 8349 2
a 2691 3740 9
a 2691 2692 11
a 2692 12509 1
a 2692 2691 11
a 2692 2693 8
a 2693 2694 13
a 2693 2692 8
a 2693 2695 19
a 2694 2699 12
a 2694 11361 18
a 2694 2693 13
a 2695 2697 16
a 2695 2693 19
a 2695 4071 60
a 2695 3664 17
a 2696 3664 14
a 2697 12607 1
a 2697 11362 16
a 2697 2695 16
a 2698 2699 12
a 2698 2701 4
a 2698 2667 33
a 2699 2698 12
a 2699 2694 12
a 2699 2668 17
a 2699 8698 28
a 2700 2666 11
a 2700 2667 11
a 2700 2701 35
a 2701 2700 35
a 2701 2664 12
a 2701 2698 4
a 2702 2704 11
a 2702 2665 21
a 2702 2703 23
a 2703 2702 23
a 2703 2666 12
a 2703 2665 20
a 2704 2702 11
a 2704 8706 31
a 2704 8687 55
a 2705 12857 9
a 2705 2706 10
a 2705 8691 28
a 2706 2150 28
a 2706 3798 13
a 2706 2707 6
a 2706 2705 10
a 2707 13207 6
a 2707 3653 9
a 2707 2706 6
a 2708 2795 7
a 2708 3655 12
a 2709 8557 9
a 2709 11461 16
a 2709 8693 36
a 2710 2783 10
a 2710 2782 18
a 2710 2795 43
a 2711 2714 12
a 2711 2712 46
a 2711 2683 12
a 2712 2682 11
a 2712 2681 11
a 2712 11983 42
a 2712 2711 46
a 2713 2716 16
a 2713 11983 19
a 2714 2711 12
a 2714 2715 13
a 2714 2682 43
a 2715 2714 13
a 2715 2716 49
a 2716 7063 23
a 2716 2713 16
a 2717 2780 20
a 2717 10289 15
a 2717 2718 47
a 2718 3788 9
a 2718 12170 26
a 2718 2717 47
a 2719 7406 14
a 2719 2676 22
a 2719 2720 41
a 2720 2719 41
a 2720 3971 19
a 2720 9681 14
a 2721 3625 9
a 2721 3316 36
a 2722 2724 24
a 2723 10924 2
a 2723 11772 10
a 2723 8832 17
a 2724 11772 8
a 2724 2725 13
a 2724 2722 24
a 2724 8590 13
a 2725 2724 13
a 2725 2726 20
a 2725 2732 21
a 2726 8590 7
a 2726 2728 21
a 2726 2727 48
a 2726 2725 20
a 2727 2728 5
a 2727 2729 8
a 2727 2726 48
a 2728 2727 5
a 2728 12403 1
a 2728 2726 21
a 2729 2727 8
a 2729 9680 5
a 2729 3628 24
a 2730 3628 7
a 2730 2731 8
a 2730 3939 16
a 2731 3775 5
a 2731 4042 3
a 2731 2730 8
a 2732 2725 21
a 2732 9716 7
a 2732 2733 20
a 2733 12089 2
a 2733 3618 28
a 2733 2752 10
a 2733 2732 20
a 2734 9719 1
a 2734 12320 2
a 2734 4092 6
a 2735 2738 8
a 2735 3986 10
a 2735 4060 10
a 2736 4008 20
a 2736 3656 17
a 2736 3809 11
a 2736 3616 34
a 2737 7043 11
a 2737 3730 9
a 2737 2741 19
a 2738 3622 11
a 2738 4008 8
a 2738 2735 8
a 2739 3622 10
a 2739 2187 11
a 2739 9481 27
a 2739 2194 26
a 2740 3730 10
a 2740 3821 11
a 2740 1807 34
a 2740 9481 34
a 2741 2187 18
a 2741 9481 11
a 2741 2737 19
a 2741 7043 45
a 2742 2745 30
a 2742 2623 10
a 2742 11450 16
a 2743 13420 4
a 2744 2609 13
a 2744 2608 47
a 2744 2745 24
a 2744 9726 34
a 2745 13420 20
a 2745 2742 30
a 2745 2744 24
a 2746 11306 1
a 2746 2747 24
a 2746 2609 17
a 2747 8997 2
a 2747 8998 2
a 2747 865 9
a 2747 2746 24
a 2748 2749 10
a 2748 3736 2
a 2748 868 12
a 2749 2748 10
a 2749 11305 1
a 2749 3744 39
a 2750 9715 3
a 2750 12319 2
a 2750 7936 5
a 2751 4090 12
a 2752 13230 8
a 2752 2753 13
a 2752 2733 10
a 2753 4087 7
a 2753 2754 19
a 2753 2752 13
a 2754 9383 11
a 2754 4078 7
a 2754 2753 19
a 2755 4023 21
a 2755 4078 13
a 2755 4073 29
a 2756 3882 9
a 2756 3804 20
a 2756 3735 22
a 2757 400 1
a 2757 12387 2
a 2757 399 4
a 2758 7631 4
a 2758 7939 11
a 2758 3624 20
a 2759 2760 5
a 2759 866 2
a 2760 10928 4
a 2761 9331 5
a 2762 3602 6
a 2762 5337 40
a 2763 149 1
a 2763 12812 16
a 2764 1630 6
a 2764 1615 7
a 2764 1575 22
a 2764 1613 39
a 2765 2461 7
a 2766 9431 2
a 2766 7749 2
a 2767 7735 5
a 2768 3058 47
a 2768 13619 10
a 2768 9708 17
a 2769 11394 8
a 2769 9597 20
a 2769 9598 19
a 2769 12770 15
a 2770 1283 12
a 2770 1287 25
a 2771 1303 8
a 2771 1311 8
a 2771 1309 18
a 2771 1308 18
a 2772 1318 18
a 2772 1319 17
a 2773 928 8
a 2773 949 8
a 2773 945 27
a 2773 943 17
a 2774 1423 7
a 2774 1427 7
a 2774 1426 26
a 2775 1624 7
a 2775 1626 6
a 2775 4094 9
a 2775 1612 48
a 2776 880 6
a 2776 887 15
a 2776 7025 10
a 2776 891 7
a 2777 8511 11
a 2777 8717 16
a 2778 1655 4
a 2778 1857 10
a 2779 2801 12
a 2779 9745 7
a 2780 2781 10
a 2780 11742 6
a 2780 2717 20
a 2781 2780 10
a 2781 2785 9
a 2781 3788 56
a 2782 2710 18
a 2782 2785 7
a 2782 8999 7
a 2783 2787 9
a 2783 2710 10
a 2783 2786 40
a 2784 3888 31
a 2784 3754 28
a 2784 3772 10
a 2784 12435 14
a 2785 2782 7
a 2785 2781 9
a 2785 2788 50
a 2786 2795 6
a 2786 2783 40
a 2786 2793 47
a 2786 2789 6
a 2787 2783 9
a 2787 12153 2
a 2787 2788 10
a 2788 2787 10
a 2788 3788 14
a 2788 2785 50
a 2788 3933 34
a 2789 2791 7
a 2789 2786 6
a 2789 12928 36
a 2790 8375 9
a 2790 3666 40
a 2790 10040 18
a 2791 2789 7
a 2791 3933 5
a 2791 3666 5
a 2792 3655 6
a 2792 2150 7
a 2792 2793 20
a 2792 3653 34
a 2793 4050 8
a 2793 2792 20
a 2793 2786 47
a 2794 13208 10
a 2794 8557 9
a 2794 11462 11
a 2794 12857 34
a 2795 2708 7
a 2795 2786 6
a 2795 10290 5
a 2795 2710 43
a 2796 11322 7
a 2796 13256 51
a 2797 2798 6
a 2797 126 3
a 2797 13598 2
a 2798 2797 6
a 2798 128 19
a 2798 119 109
a 2799 498 7
a 2799 10123 6
a 2800 13371 1
a 2800 2765 3
a 2801 1856 9
a 2801 2779 12
a 2801 2802 12
a 2802 2801 12
a 2802 1856 17
a 2803 12877 5
a 2803 12821 2
a 2803 8275 7
a 2804 10827 8
a 2804 11960 2
a 2804 7801 3
a 2805 10263 1
a 2805 12908 4
a 2805 4621 24
a 2806 2807 3
a 2806 12904 3
a 2806 13103 27
a 2807 2806 3
a 2807 8519 8
a 2807 2809 27
a 2808 11233 1
a 2808 12911 2
a 2808 2805 19
a 2809 11356 10
a 2809 2508 12
a 2810 3059 7
a 2810 2414 7
a 2810 2171 28
a 2810 2170 28
a 2811 2414 28
a 2811 8948 30
a 2811 2171 5
a 2811 2812 4
a 2812 2413 28
a 2812 8947 34
a 2812 2811 4
a 2813 2817 8
a 2813 2954 72
a 2813 2814 7
a 2813 2553 61
a 2814 2912 69
a 2814 2818 8
a 2814 2813 7
a 2814 2544 41
a 2815 2838 11
a 2815 8133 23
a 2816 2817 8
a 2816 7747 10
a 2816 2551 59
a 2816 173 68
a 2817 2816 8
a 2817 2813 8
a 2817 419 41
a 2817 171 75
a 2818 2819 5
a 2818 2568 9
a 2818 2814 8
a 2819 2818 5
a 2819 2821 12
a 2819 2544 36
a 2820 2821 12
a 2820 2565 31
a 2821 2819 12
a 2821 2820 12
a 2822 2565 12
a 2822 2544 12
a 2822 2821 33
a 2823 428 12
a 2823 431 10
a 2823 2555 40
a 2824 3523 2
a 2824 2966 18
a 2824 156 18
a 2825 2826 29
a 2825 12275 1
a 2826 2827 7
a 2826 2825 29
a 2826 3526 58
a 2827 9319 19
a 2827 2828 13
a 2827 2826 7
a 2827 2964 25
a 2828 9318 28
a 2828 3041 12
a 2828 2827 13
a 2828 2832 13
a 2829 8038 13
a 2829 8040 30
a 2830 2829 13
a 2831 8127 6
a 2831 1529 10
a 2831 2830 14
a 2832 2828 13
a 2832 3071 13
a 2832 2833 39
a 2833 2834 11
a 2833 8133 13
a 2833 2948 13
a 2833 2832 39
a 2834 2835 11
a 2834 2833 11
a 2835 2836 11
a 2835 2834 11
a 2835 2840 41
a 2836 2837 6
a 2836 2835 11
a 2837 2836 6
a 2837 2867 13
a 2837 2845 11
a 2838 2840 12
a 2838 2815 11
a 2838 2834 38
a 2839 2842 6
a 2839 8127 6
a 2840 2841 11
a 2840 2838 12
a 2840 2839 54
a 2841 2844 12
a 2841 2840 11
a 2841 2836 43
a 2842 2843 6
a 2842 2839 6
a 2842 2841 57
a 2843 2842 6
a 2843 159 7
a 2844 107 15
a 2844 2841 12
a 2844 2843 60
a 2845 2844 36
a 2845 2837 11
a 2845 109 15
a 2846 158 8
a 2846 3144 8
a 2846 2930 44
a 2847 2864 18
a 2847 2959 7
a 2848 2965 42
a 2848 3010 9
a 2848 3024 9
a 2849 2132 10
a 2849 7636 3
a 2849 2973 23
a 2850 3107 4
a 2850 3063 18
a 2850 2890 5
a 2851 3029 14
a 2851 539 19
a 2851 3134 12
a 2852 2936 10
a 2852 3152 69
a 2852 3069 9
a 2853 2164 28
a 2853 2159 28
a 2853 2895 7
a 2853 3139 7
a 2854 2897 13
a 2854 2968 34
a 2854 3337 15
a 2855 576 3
a 2855 2879 45
a 2855 578 8
a 2856 10813 2
a 2856 2884 16
a 2856 2922 36
a 2857 2861 12
a 2857 3077 12
a 2857 2935 66
a 2858 10061 11
a 2858 1077 30
a 2858 1079 31
a 2859 3014 14
a 2859 3143 10
a 2859 4442 10
a 2860 2869 32
a 2860 11085 8
a 2860 3039 14
a 2861 3063 11
a 2861 2857 12
a 2861 10063 66
a 2862 1321 12
a 2862 3017 10
a 2862 2911 19
a 2863 2137 16
a 2863 2905 9
a 2863 7634 9
a 2863 2129 18
a 2864 2906 7
a 2864 3117 28
a 2864 2158 7
a 2865 3162 37
a 2865 2950 10
a 2865 2489 9
a 2866 2969 12
a 2866 3103 47
a 2867 2945 11
a 2867 2837 13
a 2868 3038 54
a 2868 9484 36
a 2868 4489 44
a 2869 2901 4
a 2869 2860 32
a 2869 3039 25
a 2870 10353 3
a 2870 7028 25
a 2870 4715 9
a 2871 4077 2
a 2871 3652 4
a 2871 3123 8
a 2872 7689 10
a 2872 7649 23
a 2873 2908 1
a 2873 3045 6
a 2873 3072 8
a 2874 2427 12
a 2874 2418 38
a 2874 3078 19
a 2875 2866 12
a 2876 2902 11
a 2876 2941 11
a 2876 12912 2
a 2876 2493 35
a 2877 2401 25
a 2877 2390 15
a 2877 2400 33
a 2878 2489 11
a 2878 12898 2
a 2878 3112 34
a 2879 3323 15
a 2879 2855 45
a 2879 3039 18
a 2880 2153 7
a 2880 2959 6
a 2880 2152 3
a 2881 2995 12
a 2881 3103 11
a 2881 2969 54
a 2882 2931 6
a 2882 3036 9
a 2882 3004 9
a 2883 3143 30
a 2883 4442 25
a 2883 3109 16
a 2884 2856 16
a 2884 1070 30
a 2884 3149 8
a 2885 3070 13
a 2885 3013 22
a 2885 68 40
a 2886 7678 5
a 2886 7676 6
a 2886 8046 14
a 2887 2974 9
a 2887 2936 68
a 2887 3152 10
a 2888 3909 15
a 2888 11714 13
a 2888 3089 6
a 2889 2985 11
a 2889 3141 11
a 2889 2898 30
a 2889 2992 43
a 2890 2850 5
a 2890 2908 5
a 2891 2156 10
a 2891 2434 26
a 2891 2938 7
a 2892 3099 7
a 2892 2442 11
a 2892 10068 26
a 2893 734 2
a 2893 10751 14
a 2894 3127 6
a 2894 3161 10
a 2894 3065 23
a 2895 2410 28
a 2895 2853 7
a 2895 2411 28
a 2895 2408 34
a 2896 2999 13
a 2896 3013 22
a 2897 3076 34
a 2897 2854 13
a 2897 3108 9
a 2898 3017 19
a 2898 2889 30
a 2898 1267 8
a 2898 2911 7
a 2899 3016 27
a 2899 12735 1
a 2899 12736 1
a 2899 2998 16
a 2900 3034 5
a 2900 2404 4
a 2900 3147 5
a 2901 1077 18
a 2901 2869 4
a 2901 1078 43
a 2902 2876 11
a 2902 3024 41
a 2902 2940 10
a 2903 3208 20
a 2903 2982 9
a 2903 1714 8
a 2904 583 15
a 2904 586 15
a 2904 582 23
a 2905 2130 14
a 2905 2136 16
a 2905 7635 9
a 2905 2863 9
a 2906 2864 7
a 2906 2847 24
a 2907 3003 31
a 2907 2947 8
a 2907 9105 8
a 2908 2873 1
a 2908 3320 22
a 2908 2890 5
a 2909 3125 40
a 2909 3144 7
a 2909 2912 15
a 2909 87 8
a 2910 2989 10
a 2910 3162 9
a 2910 2950 37
a 2911 3141 30
a 2911 2862 19
a 2911 2898 7
a 2911 1250 8
a 2912 2954 13
a 2913 12443 9
a 2914 3004 33
a 2914 3004 26
a 2914 3045 7
a 2915 11540 12
a 2915 2144 9
a 2915 2111 38
a 2916 3021 8
a 2916 3043 8
a 2916 3123 21
a 2917 2536 27
a 2917 7255 26
a 2917 3090 11
a 2918 138 10
a 2918 156 8
a 2919 2957 8
a 2920 8951 19
a 2920 3062 6
a 2920 8952 5
a 2921 2392 32
a 2921 3082 7
a 2921 3034 9
a 2922 2993 14
a 2922 2856 36
a 2922 3070 13
a 2923 3135 36
a 2923 748 4
a 2923 394 2
a 2924 3119 23
a 2924 9688 10
a 2924 3107 19
a 2925 3914 19
a 2925 3129 13
a 2925 10956 25
a 2926 1073 9
a 2926 11869 43
a 2926 1079 6
a 2927 3104 11
a 2927 3094 17
a 2927 3121 11
a 2928 3909 4
a 2928 4062 26
a 2928 3853 21
a 2929 13016 1
a 2929 1497 1
a 2930 2538 21
a 2930 2846 44
a 2931 2987 15
a 2931 3045 9
a 2931 2882 6
a 2932 3145 7
a 2932 3067 52
a 2932 11982 38
a 2933 12878 2
a 2933 3031 76
a 2933 9392 11
a 2934 4962 24
a 2934 2893 16
a 2935 10063 6
a 2935 2960 4
a 2935 2857 66
a 2936 2852 10
a 2936 3097 9
a 2936 2887 68
a 2937 3088 10
a 2937 1868 7
a 2937 11044 6
a 2938 2433 26
a 2938 2975 7
a 2938 2891 7
a 2939 4000 10
a 2939 3831 11
a 2939 3985 7
a 2939 3770 4
a 2940 3140 10
a 2940 3120 33
a 2940 2902 10
a 2941 2876 11
a 2941 3038 9
a 2941 9484 37
a 2942 3139 9
a 2943 10556 7
a 2943 8433 8
a 2944 3088 10
a 2944 3030 19
a 2944 1870 14
a 2945 2867 11
a 2945 3128 28
a 2945 3046 15
a 2946 3141 13
a 2946 1250 15
a 2947 2397 38
a 2947 2396 6
a 2947 2907 8
a 2948 2833 13
a 2948 3049 12
a 2948 3071 33
a 2948 3023 33
a 2949 9890 3
a 2949 3170 11
a 2949 3167 10
a 2950 2865 10
a 2950 3035 9
a 2950 2910 37
a 2951 3564 7
a 2951 3549 20
a 2951 3737 26
a 2952 2953 50
a 2952 588 3
a 2952 576 9
a 2953 2952 50
a 2953 1078 18
a 2953 3039 6
a 2954 2528 13
a 2954 2813 72
a 2955 3161 23
a 2955 2427 20
a 2955 3078 12
a 2955 3065 12
a 2956 4 17
a 2956 12198 15
a 2956 7687 2
a 2957 2919 8
a 2957 7647 9
a 2957 7645 13
a 2957 3114 9
a 2958 3087 5
a 2958 3150 17
a 2959 2158 12
a 2959 2880 6
a 2960 2935 4
a 2960 1127 4
a 2960 3077 67
a 2961 3009 6
a 2961 2113 6
a 2961 2133 31
a 2961 2132 25
a 2962 3047 25
a 2962 6980 8
a 2962 6981 3
a 2963 8225 4
a 2964 2827 25
a 2964 2995 13
a 2964 154 34
a 2965 2848 42
a 2965 3120 9
a 2965 3054 9
a 2966 3103 13
a 2966 2824 18
a 2966 2875 39
a 2967 3161 10
a 2967 3078 23
a 2967 3007 30
a 2968 3106 21
a 2968 3011 8
a 2968 3865 9
a 2968 2854 34
a 2969 3155 11
a 2970 3914 35
a 2970 8317 21
a 2970 3837 16
a 2971 3114 6
a 2971 3080 7
a 2972 3058 15
a 2972 11074 14
a 2973 3009 7
a 2973 3115 34
a 2973 2849 23
a 2974 2887 9
a 2974 3097 68
a 2974 3136 9
a 2975 2154 29
a 2975 3033 7
a 2975 2938 7
a 2976 3064 14
a 2976 3110 12
a 2976 10067 18
a 2976 1068 20
a 2977 10590 4
a 2977 9210 10
a 2977 4966 12
a 2978 7522 12
a 2978 2985 17
a 2978 3151 10
a 2979 3052 4
a 2979 3018 17
a 2979 3150 10
a 2980 3036 14
a 2981 10262 1
a 2981 2808 16
a 2981 3024 11
a 2982 1680 21
a 2982 1698 9
a 2982 2903 9
a 2983 10073 3
a 2983 279 14
a 2984 8972 1
a 2984 11075 13
a 2985 2889 11
a 2985 2978 17
a 2985 1267 21
a 2986 2427 12
a 2986 585 11
a 2986 3065 20
a 2986 2424 27
a 2987 2931 15
a 2987 3072 36
a 2987 3118 13
a 2988 299 47
a 2988 3098 53
a 2988 3007 21
a 2988 568 16
a 2989 2910 10
a 2989 3035 37
a 2989 3061 9
a 2990 2164 5
a 2990 2165 5
a 2990 3139 28
a 2990 8952 39
a 2991 8955 17
a 2991 6880 6
a 2992 2889 43
a 2992 3137 6
a 2992 3151 5
a 2993 3130 13
a 2993 3113 45
a 2993 2922 14
a 2994 2126 9
a 2994 7340 31
a 2994 2143 21
a 2995 3071 12
a 2995 2881 12
a 2995 2964 13
a 2996 3016 30
a 2997 3074 16
a 2997 3050 5
a 2998 3077 12
a 2998 1127 47
a 2998 1133 58
a 2998 2899 16
a 2999 2896 13
a 3000 7690 22
a 3000 3345 12
a 3000 3040 41
a 3001 3142 31
a 3001 9793 3
a 3001 8973 10
a 3002 8680 34
a 3002 574 20
a 3002 296 28
a 3003 2403 25
a 3003 2398 9
a 3003 2907 31
a 3004 2914 26
a 3004 2914 33
a 3004 2882 9
a 3005 3044 22
a 3005 1777 23
a 3005 3329 33
a 3006 2133 9
a 3006 3009 38
a 3006 3157 48
a 3006 3858 13
a 3007 3096 21
a 3007 2988 21
a 3007 2967 30
a 3007 298 47
a 3008 11938 3
a 3008 1078 30
a 3008 588 9
a 3009 2973 7
a 3009 2961 6
a 3009 3006 38
a 3009 3057 6
a 3010 3054 42
a 3010 2848 9
a 3010 3091 9
a 3011 3694 21
a 3011 2968 8
a 3011 3840 8
a 3012 2164 25
a 3013 1077 16
a 3013 3015 32
a 3013 2885 22
a 3014 3038 10
a 3014 2859 14
a 3014 4489 9
a 3015 3013 32
a 3016 2899 27
a 3016 3099 8
a 3016 2996 30
a 3017 2862 10
a 3017 1320 12
a 3017 2898 19
a 3018 2979 17
a 3018 2958 5
a 3019 3130 3
a 3019 9688 2
a 3019 68 4
a 3020 11859 18
a 3020 1313 11
a 3020 1314 18
a 3021 4053 31
a 3021 2916 8
a 3021 3945 6
a 3021 2146 11
a 3022 1033 6
a 3022 3132 6
a 3022 7685 33
a 3023 2867 6
a 3024 2902 41
a 3024 2848 9
a 3024 3026 12
a 3024 2981 11
a 3025 1673 12
a 3025 1678 11
a 3025 3158 21
a 3026 3066 20
a 3026 3140 24
a 3026 3024 12
a 3027 3159 63
a 3027 3047 12
a 3027 566 55
a 3028 7336 10
a 3029 3166 14
a 3029 2851 14
a 3029 3146 38
a 3030 2913 10
a 3031 581 12
a 3031 8682 13
a 3031 7103 15
a 3031 2933 76
a 3032 3955 7
a 3032 3116 28
a 3032 12508 19
a 3033 2431 28
a 3033 3068 7
a 3033 2975 7
a 3034 3075 28
a 3034 2900 5
a 3034 2921 9
a 3035 2989 37
a 3035 3102 9
a 3035 2950 9
a 3036 2980 14
a 3036 12735 5
a 3036 2882 9
a 3037 68 2
a 3037 2890 38
a 3037 9688 4
a 3038 2941 9
a 3038 3014 10
a 3038 2868 54
a 3039 2869 25
a 3039 2879 18
a 3039 2953 6
a 3039 2860 14
a 3040 8578 2
a 3040 3000 41
a 3040 1032 33
a 3041 3153 11
a 3041 2828 12
a 3042 1764 13
a 3042 1759 19
a 3042 13364 2
a 3043 2916 8
a 3043 3634 8
a 3043 3160 16
a 3043 3076 21
a 3044 3072 7
a 3044 3005 22
a 3044 3118 41
a 3045 2873 6
a 3045 2931 9
a 3045 2914 7
a 3046 7743 2
a 3046 2945 15
a 3046 109 16
a 3047 3159 40
a 3047 2962 25
a 3047 3027 12
a 3048 1132 12
a 3048 10816 9
a 3049 2948 12
a 3049 2995 28
a 3050 3134 71
a 3050 3171 14
a 3051 3732 16
a 3051 3089 10
a 3051 3165 54
a 3052 2979 4
a 3053 8915 15
a 3053 586 15
a 3053 584 33
a 3054 3010 42
a 3054 2965 9
a 3054 3126 10
a 3055 3092 7
a 3055 2153 7
a 3056 7698 2
a 3056 3527 31
a 3057 3770 2
a 3057 3955 46
a 3057 3009 6
a 3058 2768 47
a 3058 9675 47
a 3058 9873 14
a 3058 2972 15
a 3059 3163 28
a 3059 3124 8
a 3059 3100 7
a 3059 2810 7
a 3060 4053 6
a 3061 2493 11
a 3061 3073 9
a 3061 2989 9
a 3061 3102 37
a 3062 8949 6
a 3062 2920 6
a 3062 8950 26
a 3063 2861 11
a 3063 3093 65
a 3063 2850 18
a 3064 2976 14
a 3064 3130 50
a 3064 3113 14
a 3065 2894 23
a 3065 2986 20
a 3065 2955 12
a 3066 3120 10
a 3066 3026 20
a 3066 3140 24
a 3067 1050 8
a 3067 1066 7
a 3067 1051 56
a 3068 2158 19
a 3068 3117 6
a 3068 3033 7
a 3068 612 19
a 3069 4767 8
a 3069 4748 69
a 3069 2852 9
a 3070 2884 24
a 3070 2922 13
a 3071 2832 13
a 3071 2995 12
a 3071 2948 33
a 3072 3044 7
a 3072 2987 36
a 3072 2873 8
a 3073 3143 9
a 3073 3061 9
a 3073 3109 37
a 3074 2997 16
a 3074 12014 3
a 3074 3087 26
a 3075 11949 5
a 3075 3034 28
a 3075 2405 14
a 3076 3043 21
a 3076 2897 34
a 3076 3840 8
a 3076 3123 8
a 3077 2857 12
a 3077 2998 12
a 3077 2960 67
a 3078 2967 23
a 3078 2955 12
a 3078 12879 9
a 3078 2874 19
a 3079 7696 2
a 3079 13375 70
a 3080 9885 13
a 3080 3345 13
a 3080 2971 7
a 3081 1233 3
a 3082 7662 4
a 3082 2921 7
a 3082 2410 30
a 3083 2492 11
a 3083 2490 42
a 3083 3126 9
a 3084 3688 6
a 3084 7915 10
a 3084 3108 6
a 3084 3993 24
a 3085 1766 12
a 3085 1760 10
a 3085 13483 1
a 3085 13363 2
a 3086 2492 11
a 3086 2489 37
a 3086 3162 9
a 3087 3074 26
a 3087 2997 5
a 3088 2944 10
a 3088 3156 9
a 3088 2913 19
a 3089 9669 4
a 3089 2888 6
a 3089 7339 6
a 3089 3051 10
a 3090 11073 30
a 3090 2917 11
a 3091 3126 42
a 3091 2490 9
a 3091 3010 9
a 3092 2155 26
a 3092 3055 7
a 3093 1129 10
a 3093 1128 5
a 3093 3063 65
a 3094 2927 17
a 3094 3104 26
a 3094 3121 26
a 3095 2483 14
a 3095 10071 16
a 3095 2830 33
a 3096 9392 1
a 3096 3105 20
a 3096 3007 21
a 3096 297 47
a 3097 2936 9
a 3097 3168 9
a 3097 2974 68
a 3098 2988 53
a 3098 3172 57
a 3098 568 66
a 3099 3016 8
a 3099 2892 7
a 3099 10068 46
a 3100 2165 28
a 3100 3139 7
a 3100 3059 7
a 3101 2930 12
a 3102 3109 10
a 3102 3035 9
a 3102 3061 37
a 3103 2881 11
a 3103 2966 13
a 3104 2927 11
a 3104 3094 26
a 3104 3118 18
a 3105 574 25
a 3105 3096 20
a 3105 8681 47
a 3106 3694 8
a 3106 4063 8
a 3106 2968 21
a 3107 2924 19
a 3107 10064 21
a 3107 2850 4
a 3108 3123 33
a 3108 2897 9
a 3108 3084 6
a 3109 3102 10
a 3109 3073 37
a 3109 2883 16
a 3110 2976 12
a 3110 10066 3
a 3111 3148 24
a 3111 3737 35
a 3111 3789 11
a 3112 3168 11
a 3112 2878 34
a 3112 2491 15
a 3113 10813 12
a 3113 3064 14
a 3113 2993 45
a 3114 2971 6
a 3114 8752 10
a 3114 7678 19
a 3114 2957 9
a 3115 7636 8
a 3115 2127 17
a 3115 2973 34
a 3116 3737 21
a 3116 3549 11
a 3116 3978 30
a 3116 3032 28
a 3117 7358 7
a 3117 3068 6
a 3117 3138 29
a 3118 3104 18
a 3118 3044 41
a 3118 2987 13
a 3119 2924 23
a 3119 10064 5
a 3119 10067 2
a 3120 3066 10
a 3120 2940 33
a 3120 2965 9
a 3120 2493 11
a 3121 3094 26
a 3121 3325 54
a 3121 2927 11
a 3122 11877 3
a 3122 10583 5
a 3122 4961 7
a 3122 8574 5
a 3123 2916 21
a 3123 3108 33
a 3123 2871 8
a 3123 3076 8
a 3124 3059 8
a 3125 3101 11
a 3125 2539 53
a 3125 2909 40
a 3126 3091 42
a 3126 3054 10
a 3126 3083 9
a 3127 2894 6
a 3127 8915 11
a 3127 2933 12
a 3128 2918 29
a 3129 2925 13
a 3129 926 2
a 3129 3564 26
a 3130 2993 13
a 3130 3019 3
a 3130 3064 50
a 3131 3149 12
a 3132 3022 6
a 3132 1034 5
a 3133 2155 6
a 3133 9928 8
a 3133 3092 32
a 3134 538 27
a 3134 3050 71
a 3134 2851 12
a 3135 2923 36
a 3136 3168 68
a 3136 2974 9
a 3136 2488 11
a 3137 3141 44
a 3137 99 7
a 3137 2992 6
a 3138 11964 2
a 3138 612 3
a 3139 2853 7
a 3139 3100 7
a 3139 2990 28
a 3139 2942 9
a 3140 3026 24
a 3140 2940 10
a 3140 3066 24
a 3141 2889 11
a 3141 2946 13
a 3141 2911 30
a 3141 3137 44
a 3142 3001 31
a 3143 2859 10
a 3143 3073 9
a 3143 2883 30
a 3144 3101 42
a 3144 2909 7
a 3144 2846 8
a 3145 1068 11
a 3145 2932 7
a 3145 1120 30
a 3146 7505 13
a 3146 3151 15
a 3146 3029 38
a 3146 3166 20
a 3147 2900 5
a 3147 2407 3
a 3147 8954 13
a 3148 3731 9
a 3148 10956 10
a 3148 4000 7
a 3148 3111 24
a 3149 3131 12
a 3149 2896 9
a 3150 13486 3
a 3150 2958 17
a 3150 2979 10
a 3151 3146 15
a 3151 2992 5
a 3151 539 17
a 3151 2978 10
a 3152 4748 9
a 3152 2852 69
a 3152 2887 10
a 3153 8039 12
a 3153 3041 11
a 3153 10071 33
a 3154 10029 20
a 3155 3049 33
a 3155 3023 12
a 3156 3088 9
a 3156 11044 10
a 3156 9447 9
a 3157 2134 9
a 3157 2135 9
a 3157 3006 48
a 3158 920 11
a 3158 1727 7
a 3158 3025 21
a 3159 3027 63
a 3159 6979 24
a 3159 3047 40
a 3160 3043 16
a 3160 2146 8
a 3160 3165 2
a 3161 2955 23
a 3161 2967 10
a 3161 2894 10
a 3162 2865 37
a 3162 2910 9
a 3162 3086 9
a 3163 3059 28
a 3163 2165 5
a 3163 2171 4
a 3163 8951 28
a 3164 12497 4
a 3164 12498 2
a 3164 7914 18
a 3164 7915 7
a 3165 3051 54
a 3165 3160 2
a 3165 4005 15
a 3166 3029 14
a 3166 3146 20
a 3166 7505 31
a 3167 9889 3
a 3167 3170 17
a 3168 7028 9
a 3168 3136 68
a 3168 3097 9
a 3168 3112 11
a 3169 1312 25
a 3169 7522 24
a 3169 8078 8
a 3170 2949 11
a 3170 3171 13
a 3171 3170 13
a 3171 7556 6
a 3172 3098 57
a 3173 13375 1
a 3173 7696 71
a 3174 10609 1
a 3174 9208 41
a 3175 7530 37
a 3176 3179 20
a 3176 13461 6
a 3176 1790 12
a 3176 3177 34
a 3177 1208 8
a 3177 9946 29
a 3177 3176 34
a 3177 1490 12
a 3178 13461 10
a 3178 2183 16
a 3178 13466 4
a 3178 1490 34
a 3179 3176 20
a 3179 1117 9
a 3179 1208 22
a 3180 3186 14
a 3180 9498 22
a 3180 6921 20
a 3181 3183 25
a 3181 3191 53
a 3181 1538 19
a 3181 3192 13
a 3182 3185 14
a 3182 1537 16
a 3182 11985 34
a 3183 3188 33
a 3183 3185 13
a 3183 3181 25
a 3184 3188 33
a 3184 3186 13
a 3184 3190 14
a 3185 3182 14
a 3185 3183 13
a 3185 3187 33
a 3186 3180 14
a 3186 3187 33
a 3186 3184 13
a 3187 3186 33
a 3187 3185 33
a 3187 3188 13
a 3187 11985 15
a 3188 3184 33
a 3188 3183 33
a 3188 3189 15
a 3188 3187 13
a 3189 11810 7
a 3189 3188 15
a 3189 3192 20
a 3190 3184 14
a 3190 3191 21
a 3190 7733 22
a 3191 11810 6
a 3191 3181 53
a 3191 3190 21
a 3192 3181 13
a 3192 3189 20
a 3192 8835 12
a 3193 3199 9
a 3193 10081 11
a 3193 1538 20
a 3194 3195 14
a 3194 3201 25
a 3194 3198 25
a 3194 3197 14
a 3195 1861 8
a 3195 3200 28
a 3195 3194 14
a 3196 3197 6
a 3196 3204 6
a 3196 3542 28
a 3197 3205 30
a 3197 3196 6
a 3197 3194 14
a 3198 3200 13
a 3198 3199 18
a 3198 3194 25
a 3199 10081 4
a 3199 3193 9
a 3199 3198 18
a 3200 3195 28
a 3200 3198 13
a 3200 461 22
a 3201 3205 11
a 3201 10081 1
a 3201 3194 25
a 3202 11317 7
a 3202 3205 12
a 3202 3204 31
a 3202 9466 28
a 3203 9466 15
a 3203 1538 15
a 3203 3205 36
a 3204 3196 6
a 3204 3202 31
a 3204 7326 17
a 3205 3202 12
a 3205 3201 11
a 3205 3197 30
a 3205 3203 36
a 3206 3540 4
a 3206 8448 5
a 3207 1698 18
a 3207 1681 9
a 3207 1680 8
a 3208 2903 20
a 3208 1680 8
a 3208 1679 14
a 3209 1669 9
a 3209 1673 14
a 3209 1674 14
a 3210 1518 17
a 3210 3212 49
a 3211 10822 22
a 3211 2453 47
a 3211 7704 10
a 3212 1205 9
a 3212 1517 8
a 3212 3210 49
a 3213 12596 3
a 3213 2675 11
a 3213 2674 6
a 3214 3846 6
a 3214 2674 6
a 3214 12433 3
a 3215 7418 2
a 3215 12400 5
a 3216 12524 6
a 3216 3219 16
a 3216 3218 26
a 3217 3221 12
a 3217 3219 19
a 3217 3222 9
a 3218 3216 26
a 3218 8832 13
a 3218 3219 23
a 3219 11774 7
a 3219 3217 19
a 3219 3216 16
a 3219 3218 23
a 3220 3221 16
a 3221 3217 12
a 3221 3220 16
a 3221 11772 28
a 3222 8590 3
a 3222 3625 35
a 3222 3217 9
a 3223 3215 1
a 3223 3224 20
a 3224 3224 35
a 3224 3224 35
a 3224 3223 20
a 3225 3298 26
a 3225 3258 13
a 3225 3269 11
a 3226 3235 16
a 3226 11616 20
a 3226 3287 38
a 3226 11684 18
a 3227 13418 6
a 3227 3275 44
a 3227 3296 13
a 3227 3257 26
a 3228 7964 2
a 3228 7962 9
a 3228 3238 12
a 3229 3255 14
a 3229 3283 13
a 3229 3270 70
a 3229 7628 15
a 3230 7353 9
a 3230 7624 3
a 3231 3305 15
a 3231 3247 39
a 3231 11685 16
a 3232 3283 46
a 3232 3300 21
a 3232 3270 20
a 3233 3240 14
a 3234 3284 2
a 3234 3243 14
a 3234 3570 26
a 3235 3274 24
a 3235 3226 16
a 3235 3236 11
a 3236 11038 1
a 3236 3264 25
a 3236 3235 11
a 3237 3570 5
a 3237 10980 11
a 3237 7767 10
a 3238 3246 13
a 3238 3228 12
a 3238 13566 5
a 3238 3920 66
a 3239 3244 11
a 3239 3263 44
a 3239 3301 11
a 3240 7767 8
a 3240 3291 11
a 3240 3233 14
a 3241 3306 8
a 3242 3279 13
a 3243 3234 14
a 3243 3296 24
a 3243 3286 38
a 3244 12654 5
a 3244 3239 11
a 3244 3285 55
a 3245 8685 5
a 3245 10212 3
a 3246 3256 8
a 3246 3238 13
a 3246 3298 10
a 3247 3268 16
a 3247 3231 39
a 3247 3273 47
a 3248 2211 20
a 3248 2216 15
a 3248 3273 15
a 3249 3293 13
a 3249 3291 14
a 3249 3275 44
a 3249 11884 46
a 3250 3303 10
a 3250 3274 21
a 3250 3294 15
a 3251 8936 2
a 3252 12654 5
a 3252 10985 26
a 3252 3280 44
a 3253 3295 17
a 3253 9375 10
a 3253 9375 15
a 3254 8570 6
a 3254 4058 20
a 3254 3260 11
a 3255 3268 16
a 3255 3229 14
a 3255 11686 22
a 3256 3246 8
a 3256 3295 29
a 3256 3269 21
a 3257 3267 18
a 3257 3227 26
a 3257 10985 27
a 3258 3271 19
a 3258 3261 34
a 3258 3225 13
a 3259 11905 2
a 3259 3289 12
a 3259 3278 57
a 3260 3293 32
a 3260 3263 12
a 3260 3254 11
a 3260 3301 54
a 3261 3271 32
a 3261 3920 18
a 3261 3258 34
a 3262 10148 20
a 3263 3276 26
a 3263 3239 44
a 3263 3260 12
a 3264 11905 14
a 3264 3294 14
a 3264 3236 25
a 3265 4480 6
a 3265 8408 2
a 3265 4429 21
a 3266 7625 3
a 3266 3230 4
a 3266 11897 2
a 3267 3275 14
a 3267 3257 18
a 3267 3280 24
a 3268 3247 16
a 3268 3255 16
a 3268 11685 18
a 3269 3256 21
a 3269 3225 11
a 3269 3295 12
a 3270 12653 4
a 3270 3229 70
a 3270 3232 20
a 3271 3258 19
a 3271 3261 32
a 3271 3298 11
a 3272 12189 2
a 3272 10151 9
a 3273 3279 14
a 3273 3248 15
a 3273 3247 47
a 3274 3250 21
a 3274 12391 38
a 3274 3235 24
a 3274 11616 16
a 3275 3286 14
a 3275 3267 14
a 3275 3227 44
a 3275 3249 44
a 3276 3263 26
a 3276 3285 11
a 3276 3293 11
a 3277 11990 9
a 3277 3304 40
a 3277 2207 11
a 3278 3259 57
a 3278 3289 71
a 3278 13565 12
a 3279 3273 14
a 3279 3242 13
a 3279 3305 20
a 3280 3267 24
a 3280 3285 12
a 3280 3252 44
a 3281 3297 23
a 3282 8978 4
a 3282 3292 46
a 3282 3292 14
a 3283 3229 13
a 3283 3232 46
a 3283 11684 11
a 3284 3234 2
a 3284 3292 8
a 3284 3416 21
a 3285 3244 55
a 3285 3280 12
a 3285 3276 11
a 3286 3275 14
a 3286 10980 1
a 3286 3243 38
a 3287 10034 79
a 3287 2207 23
a 3287 3226 38
a 3288 3302 14
a 3288 2530 11
a 3288 689 8
a 3289 3278 71
a 3289 11038 12
a 3289 3259 12
a 3290 10912 2
a 3290 12223 2
a 3291 3249 14
a 3291 3240 11
a 3291 10980 30
a 3292 3282 46
a 3292 3282 14
a 3292 3284 8
a 3293 3260 32
a 3293 3249 13
a 3293 3276 11
a 3294 3306 14
a 3294 3250 15
a 3294 3264 14
a 3295 9374 7
a 3295 3253 17
a 3295 3256 29
a 3295 3269 12
a 3296 10978 7
a 3296 3243 24
a 3296 3227 13
a 3297 10148 14
a 3297 3281 23
a 3297 9718 13
a 3298 3225 26
a 3298 3246 10
a 3298 3271 11
a 3299 8977 4
a 3299 3701 8
a 3299 7625 14
a 3300 3232 21
a 3301 8976 5
a 3301 3239 11
a 3301 7624 13
a 3301 3260 54
a 3302 3288 14
a 3303 3250 10
a 3304 7354 14
a 3304 7957 27
a 3304 3277 40
a 3305 3231 15
a 3305 11686 33
a 3305 3279 20
a 3306 3294 14
a 3306 3241 8
a 3306 11905 17
a 3307 7205 33
a 3307 7478 5
a 3308 3903 25
a 3308 11148 15
a 3308 8376 15
a 3309 3313 5
a 3309 6020 17
a 3309 6034 6
a 3310 10179 2
a 3310 5521 59
a 3310 8723 127
a 3310 5847 55
a 3311 9002 6
a 3311 5209 28
a 3311 9001 15
a 3311 12983 9
a 3312 4142 33
a 3312 5209 5
a 3312 5215 5
a 3312 4145 13
a 3313 6045 7
a 3313 3309 5
a 3313 6031 13
a 3314 8277 20
a 3314 3315 6
a 3314 3807 6
a 3315 3969 10
a 3315 3314 6
a 3316 402 4
a 3316 3725 4
a 3317 589 18
a 3317 577 19
a 3317 576 44
a 3318 1097 6
a 3318 1571 3
a 3319 3325 18
a 3319 3330 65
a 3320 1776 18
a 3320 3322 27
a 3321 3324 5
a 3321 12852 2
a 3322 3320 27
a 3322 3323 3
a 3322 1776 7
a 3323 2879 15
a 3323 3322 3
a 3323 578 19
a 3324 3321 5
a 3324 12298 2
a 3325 10104 9
a 3325 3121 54
a 3326 10101 13
a 3327 10240 32
a 3327 10240 10
a 3328 7753 11
a 3328 1569 28
a 3328 10101 19
a 3329 1093 1
a 3329 11652 19
a 3329 3005 33
a 3330 3319 31
a 3330 3319 65
a 3331 11224 1
a 3332 12827 13
a 3332 3339 17
a 3332 8143 8
a 3333 3335 7
a 3333 3334 7
a 3333 1672 23
a 3334 3333 7
a 3334 3347 8
a 3334 3347 41
a 3335 3333 7
a 3335 10291 2
a 3335 3341 5
a 3336 7578 7
a 3336 12775 23
a 3337 3344 33
a 3337 2026 8
a 3337 2854 15
a 3338 622 22
a 3338 620 20
a 3338 624 41
a 3339 11329 21
a 3339 3332 17
a 3339 11095 9
a 3339 9984 7
a 3340 1672 7
a 3340 10291 7
a 3340 3348 17
a 3341 3335 5
a 3341 3348 17
a 3341 1671 8
a 3342 283 24
a 3343 1703 14
a 3343 8143 19
a 3344 2065 15
a 3344 2047 34
a 3344 3337 33
a 3344 3349 15
a 3345 7659 7
a 3345 3080 13
a 3345 3000 12
a 3346 12457 6
a 3346 11224 33
a 3347 3334 8
a 3347 3334 41
a 3347 3350 11
a 3348 10291 11
a 3348 3341 17
a 3348 3340 17
a 3349 3344 15
a 3349 3865 35
a 3350 3347 11
a 3351 12457 22
a 3352 2271 12
a 3352 11390 7
a 3352 2270 12
a 3353 2289 7
a 3353 11390 14
a 3353 11390 14
a 3354 3355 24
a 3354 10328 19
a 3354 7655 4
a 3355 3354 24
a 3355 10329 29
a 3355 11496 20
a 3356 10318 18
a 3356 10328 17
a 3356 11496 5
a 3357 2389 25
a 3357 3358 14
a 3357 10331 9
a 3358 3357 14
a 3358 10332 5
a 3358 3383 6
a 3358 10334 31
a 3359 5302 18
a 3360 5302 39
a 3360 12203 1
a 3360 6861 20
a 3361 3404 54
a 3361 3408 30
a 3361 3362 12
a 3361 3396 12
a 3362 3415 49
a 3362 3361 12
a 3362 3410 10
a 3363 3387 16
a 3363 10319 10
a 3363 12037 3
a 3363 11383 33
a 3364 9649 1
a 3364 10319 1
a 3364 10906 3
a 3365 3366 2
a 3365 9649 4
a 3365 10327 21
a 3366 10333 1
a 3366 3388 19
a 3366 3365 2
a 3367 3385 6
a 3367 3368 3
a 3367 13199 1
a 3368 3367 3
a 3368 9065 15
a 3368 11778 21
a 3369 13199 16
a 3370 3374 6
a 3370 10105 1
a 3370 3371 40
a 3371 3373 7
a 3371 2388 18
a 3371 3372 14
a 3371 3370 40
a 3372 2350 9
a 3372 3371 14
a 3372 2352 18
a 3373 3378 10
a 3373 3371 7
a 3373 3374 39
a 3374 3377 6
a 3374 3370 6
a 3374 3375 21
a 3374 3373 39
a 3375 3374 21
a 3375 3376 9
a 3375 3385 10
a 3376 3377 22
a 3376 3375 9
a 3376 2357 30
a 3377 2357 6
a 3377 3374 6
a 3377 3376 22
a 3377 3378 39
a 3378 3379 9
a 3378 3373 10
a 3378 2335 14
a 3378 3377 39
a 3379 3382 9
a 3379 3378 9
a 3379 3380 14
a 3379 2357 39
a 3380 2335 9
a 3380 3381 9
a 3380 3379 14
a 3381 2334 9
a 3381 3382 14
a 3381 3380 9
a 3382 2389 9
a 3382 3379 9
a 3382 3383 39
a 3382 3381 14
a 3383 2357 6
a 3383 12510 1
a 3383 3382 39
a 3383 3358 6
a 3384 3385 18
a 3384 10901 10
a 3384 2384 27
a 3385 10900 11
a 3385 3367 6
a 3385 3375 10
a 3385 3384 18
a 3386 3387 68
a 3386 3400 3
a 3386 3393 12
a 3387 3386 68
a 3387 3392 12
a 3387 3363 16
a 3388 3391 12
a 3388 9061 66
a 3388 3366 19
a 3389 6858 5
a 3389 12659 4
a 3389 8987 9
a 3390 3391 69
a 3390 3393 12
a 3390 8986 9
a 3391 3388 12
a 3391 3392 12
a 3391 3390 69
a 3392 3391 12
a 3392 3387 12
a 3392 3393 68
a 3393 3392 68
a 3393 3386 12
a 3393 3390 12
a 3393 3394 8
a 3394 3403 5
a 3394 3393 8
a 3394 3398 30
a 3395 3406 7
a 3396 3397 54
a 3396 3406 68
a 3396 3361 12
a 3396 3400 9
a 3397 8981 4
a 3397 3404 12
a 3397 3396 54
a 3398 3394 30
a 3399 10323 18
a 3399 10321 5
a 3399 3400 8
a 3400 3386 3
a 3400 3399 8
a 3400 3396 9
a 3401 10323 12
a 3402 10324 11
a 3403 10324 18
a 3403 10321 5
a 3403 3394 5
a 3404 3361 54
a 3404 3415 11
a 3404 3397 12
a 3405 3412 11
a 3405 3406 12
a 3405 3407 21
a 3406 3395 7
a 3406 3405 12
a 3406 3396 68
a 3407 8980 4
a 3407 12040 12
a 3407 3405 21
a 3408 3412 28
a 3408 3414 11
a 3408 3361 30
a 3409 3411 4
a 3410 3411 35
a 3410 3415 58
a 3410 3362 10
a 3410 3571 8
a 3411 3409 4
a 3411 3414 10
a 3411 12040 27
a 3411 3410 35
a 3412 3405 11
a 3412 3408 28
a 3412 3413 11
a 3413 3412 11
a 3413 3414 28
a 3413 12040 10
a 3414 3411 10
a 3414 3408 11
a 3414 3413 28
a 3415 3404 11
a 3415 3362 49
a 3415 3410 58
a 3416 3284 21
a 3416 3573 8
a 3416 3572 32
a 3417 3577 6
a 3417 3580 6
a 3417 3578 17
a 3418 3421 11
a 3418 3419 8
a 3418 3580 10
a 3419 3418 8
a 3419 3571 4
a 3420 3425 10
a 3420 3426 14
a 3420 3424 23
a 3421 3418 11
a 3421 3423 47
a 3421 3582 11
a 3422 3423 16
a 3422 3419 55
a 3423 3422 16
a 3423 3425 9
a 3423 3421 47
a 3424 3422 9
a 3424 3425 15
a 3425 3583 9
a 3425 3424 15
a 3425 3420 10
a 3425 3423 9
a 3426 3420 14
a 3426 7638 14
a 3426 12202 6
a 3427 7905 3
a 3427 3462 9
a 3427 3438 8
a 3428 3478 10
a 3428 4509 23
a 3428 3482 46
a 3429 4551 2
a 3429 3440 10
a 3429 10719 14
a 3430 3433 11
a 3430 4367 2
a 3430 3487 4
a 3431 3484 11
a 3431 3443 41
a 3431 8599 11
a 3432 3438 40
a 3432 3459 16
a 3432 8592 16
a 3433 3430 11
a 3433 3447 31
a 3433 3476 7
a 3434 3480 11
a 3434 3489 12
a 3434 3455 47
a 3435 3484 43
a 3435 3443 10
a 3435 3472 9
a 3436 3486 8
a 3436 7888 2
a 3436 3450 7
a 3437 3456 10
a 3437 3463 11
a 3437 13081 3
a 3437 12759 2
a 3438 3427 8
a 3438 8594 8
a 3438 3432 40
a 3439 3472 12
a 3439 3465 11
a 3439 3445 30
a 3440 3444 9
a 3440 3474 32
a 3440 3429 10
a 3441 3486 7
a 3441 3463 11
a 3441 3460 32
a 3442 9935 1
a 3442 3468 10
a 3442 3485 8
a 3443 3445 12
a 3443 3431 41
a 3443 3466 8
a 3443 3435 10
a 3444 3440 9
a 3444 3489 27
a 3444 3455 14
a 3445 3443 12
a 3445 4505 16
a 3445 3439 30
a 3446 9937 15
a 3446 3454 12
a 3446 9938 56
a 3447 3471 10
a 3447 3479 13
a 3447 3433 31
a 3448 3467 16
a 3448 3455 47
a 3448 3465 19
a 3449 4378 15
a 3449 3473 8
a 3449 3462 8
a 3450 3481 8
a 3450 7889 2
a 3450 3436 7
a 3451 3464 12
a 3451 3456 45
a 3451 3469 14
a 3451 3475 7
a 3452 3468 7
a 3452 7894 2
a 3452 3457 7
a 3453 3467 4
a 3454 3460 24
a 3454 3446 12
a 3454 3478 11
a 3455 3472 7
a 3455 3448 47
a 3455 3444 14
a 3455 3434 47
a 3456 3437 10
a 3456 7893 2
a 3456 3451 45
a 3456 3470 11
a 3457 3460 7
a 3457 3452 7
a 3457 3463 49
a 3458 3482 10
a 3458 3478 51
a 3458 3468 11
a 3459 12782 1
a 3459 3466 16
a 3459 3432 16
a 3460 3454 24
a 3460 3457 7
a 3460 3441 32
a 3461 3481 8
a 3461 3476 7
a 3461 7890 2
a 3461 3464 32
a 3462 3449 8
a 3462 3427 9
a 3462 4432 13
a 3462 3466 31
a 3463 3437 11
a 3463 3441 11
a 3463 3469 45
a 3463 3457 49
a 3464 3451 12
a 3464 3471 11
a 3464 3461 32
a 3465 3439 11
a 3465 3448 19
a 3465 3467 38
a 3466 3462 31
a 3466 3443 8
a 3466 3459 16
a 3467 3453 4
a 3467 3448 16
a 3467 3465 38
a 3468 3452 7
a 3468 12960 2
a 3468 3442 10
a 3468 3458 11
a 3469 3481 7
a 3469 3463 45
a 3469 3451 14
a 3470 8599 2
a 3470 3475 22
a 3470 3456 11
a 3471 3464 11
a 3471 3447 10
a 3471 3476 32
a 3472 3439 12
a 3472 3455 7
a 3472 3435 9
a 3472 3480 45
a 3473 4539 18
a 3473 4548 12
a 3473 3449 8
a 3474 3489 12
a 3474 3440 32
a 3474 8598 22
a 3475 8600 1
a 3475 3479 14
a 3475 3451 7
a 3476 3461 7
a 3476 3433 7
a 3476 3471 32
a 3477 3470 6
a 3477 8592 2
a 3478 3428 10
a 3478 3454 11
a 3478 3458 51
a 3479 3447 13
a 3479 153 7
a 3480 3484 11
a 3480 3434 11
a 3480 3472 45
a 3481 3461 8
a 3481 3450 8
a 3481 3469 7
a 3481 7891 6
a 3482 3458 10
a 3482 3428 46
a 3482 4509 37
a 3483 4273 24
a 3483 10716 13
a 3483 3488 7
a 3484 3431 11
a 3484 3480 11
a 3484 3435 43
a 3485 3477 18
a 3485 8594 1
a 3486 3441 7
a 3486 3436 8
a 3486 7892 12
a 3487 7873 18
a 3487 10796 12
a 3488 4548 6
a 3488 4277 16
a 3488 3483 7
a 3489 8600 8
a 3489 3434 12
a 3489 3474 12
a 3489 3444 27
a 3490 13346 7
a 3490 2295 13
a 3490 10122 39
a 3491 4815 13
a 3492 13350 33
a 3492 3495 4
a 3493 3500 4
a 3493 3495 8
a 3494 7237 17
a 3494 3506 29
a 3494 3499 9
a 3495 2294 16
a 3495 3492 4
a 3495 3493 8
a 3496 3512 14
a 3497 13539 1
a 3497 10121 23
a 3497 3507 44
a 3497 3499 7
a 3498 3507 7
a 3498 3499 43
a 3498 3506 10
a 3499 3498 43
a 3499 3497 7
a 3499 3494 9
a 3500 3501 18
a 3500 3503 5
a 3500 3493 4
a 3501 10120 7
a 3501 3502 7
a 3502 3503 18
a 3502 3505 7
a 3502 3501 7
a 3503 3502 18
a 3503 3504 5
a 3503 3500 5
a 3504 3505 17
a 3504 3506 5
a 3504 3503 5
a 3505 3507 7
a 3505 3504 17
a 3505 3502 7
a 3506 3498 10
a 3506 3494 29
a 3506 3504 5
a 3507 3498 7
a 3507 3505 7
a 3507 3497 44
a 3508 3510 4
a 3509 3512 10
a 3509 10120 8
a 3509 3517 34
a 3510 3508 4
a 3510 3515 31
a 3511 3519 63
a 3512 3496 14
a 3512 3509 10
a 3512 3519 9
a 3513 3514 11
a 3513 3519 32
a 3513 3516 19
a 3514 3515 9
a 3514 3518 31
a 3514 3513 11
a 3515 3514 9
a 3515 3511 9
a 3516 3517 9
a 3516 3513 19
a 3516 3519 32
a 3517 3516 9
a 3517 3518 9
a 3518 3510 9
a 3518 3514 31
a 3519 3513 32
a 3519 3512 9
a 3519 3511 63
a 3519 3516 32
a 3520 12445 2
a 3520 13538 5
a 3520 12152 43
a 3521 6930 23
a 3521 7237 14
a 3521 7238 23
a 3522 3524 4
a 3522 7726 20
a 3523 3525 13
a 3523 2824 2
a 3523 154 7
a 3524 3154 3
a 3524 12069 2
a 3525 3523 13
a 3525 11630 5
a 3525 8225 41
a 3525 12069 33
a 3526 2826 58
a 3526 157 3
a 3526 160 15
a 3527 7697 2
a 3527 3079 18
a 3528 7697 35
a 3528 9605 8
a 3529 157 31
a 3529 155 20
a 3529 3530 13
a 3530 3531 11
a 3530 1533 55
a 3530 3529 13
a 3531 2484 46
a 3531 3532 11
a 3531 3530 11
a 3532 3533 12
a 3532 3531 11
a 3532 2482 43
a 3533 1529 31
a 3533 3532 12
a 3533 1528 25
a 3534 1226 2
a 3535 3566 17
a 3535 927 47
a 3535 3543 44
a 3536 3566 14
a 3536 11214 28
a 3536 6376 21
a 3537 11642 23
a 3538 3545 11
a 3539 7729 6
a 3539 3563 14
a 3540 12753 1
a 3540 3548 16
a 3540 3206 4
a 3541 8774 34
a 3541 6783 35
a 3541 3565 16
a 3542 3196 28
a 3542 462 37
a 3542 1861 20
a 3543 3549 16
a 3543 3535 44
a 3543 3560 8
a 3543 3558 21
a 3544 3550 44
a 3545 3562 51
a 3545 3562 31
a 3546 11241 12
a 3546 5335 14
a 3546 13540 8
a 3547 466 2
a 3548 3552 19
a 3548 3552 38
a 3548 3540 16
a 3549 3116 11
a 3549 2951 20
a 3549 3543 16
a 3549 13401 18
a 3550 953 10
a 3550 927 13
a 3550 3553 27
a 3550 3544 44
a 3551 925 16
a 3551 3567 16
a 3551 11214 27
a 3552 3548 38
a 3552 3548 19
a 3552 3555 13
a 3553 3567 12
a 3553 924 10
a 3553 3550 27
a 3553 958 35
a 3554 8166 11
a 3554 13400 2
a 3555 13400 46
a 3555 3552 13
a 3555 3561 15
a 3555 10948 18
a 3556 8146 4
a 3556 6788 5
a 3556 6789 28
a 3557 424 11
a 3557 432 39
a 3557 8226 39
a 3558 3566 18
a 3558 3543 21
a 3558 6376 25
a 3559 3565 15
a 3559 8146 26
a 3559 6789 17
a 3560 3543 8
a 3561 3555 15
a 3562 3545 51
a 3562 9468 16
a 3563 9468 2
a 3563 9978 7
a 3563 11284 2
a 3563 3539 14
a 3564 6376 10
a 3564 2951 7
a 3564 3129 26
a 3565 3559 15
a 3565 6784 34
a 3565 3541 16
a 3566 3535 17
a 3566 6376 7
a 3566 3558 18
a 3566 3536 14
a 3567 3551 16
a 3567 3553 12
a 3567 927 27
a 3567 957 34
a 3568 11208 21
a 3568 11210 2
a 3569 10810 4
a 3569 10939 25
a 3569 8506 52
a 3570 3237 5
a 3570 3234 26
a 3570 8979 26
a 3571 3419 4
a 3571 3579 6
a 3571 3410 8
a 3572 3574 6
a 3572 12799 4
a 3572 3416 32
a 3573 3575 6
a 3573 12800 14
a 3573 3416 8
a 3574 3575 18
a 3574 3576 5
a 3574 3572 6
a 3575 3573 6
a 3575 3577 6
a 3575 3574 18
a 3576 3577 18
a 3576 3578 6
a 3576 3574 5
a 3577 3575 6
a 3577 3417 6
a 3577 3576 18
a 3578 3417 17
a 3578 3579 6
a 3578 3576 6
a 3579 3580 17
a 3579 3571 6
a 3579 3578 6
a 3580 3417 6
a 3580 3579 17
a 3580 3418 10
a 3581 3584 15
a 3582 3584 8
a 3582 3421 11
a 3582 3583 55
a 3583 3425 9
a 3583 3589 12
a 3583 3582 55
a 3584 3582 8
a 3584 3581 15
a 3584 3589 48
a 3585 10993 1
a 3585 3593 19
a 3585 13237 11
a 3585 7629 8
a 3586 3587 17
a 3586 11271 11
a 3586 13237 6
a 3587 3590 15
a 3587 3592 12
a 3587 3586 17
a 3588 11220 13
a 3589 3583 12
a 3589 3584 48
a 3589 11220 16
a 3590 3587 15
a 3590 3591 12
a 3590 11220 1
a 3591 3590 12
a 3591 3592 16
a 3591 3596 28
a 3592 3591 16
a 3592 3595 9
a 3592 3587 12
a 3593 3594 39
a 3593 3595 9
a 3593 3585 19
a 3594 3593 39
a 3594 12656 15
a 3594 11762 33
a 3595 3593 9
a 3595 3592 9
a 3595 12225 31
a 3596 3591 28
a 3596 11767 3
a 3596 12657 4
a 3597 8620 6
a 3597 6783 16
a 3598 5025 5
a 3599 7584 8
a 3599 3598 14
a 3600 5318 27
a 3600 3601 14
a 3600 5321 13
a 3600 3607 21
a 3601 5350 29
a 3601 10645 12
a 3601 3600 14
a 3602 5334 12
a 3602 12956 9
a 3603 11835 5
a 3603 3604 11
a 3603 8774 7
a 3604 3607 18
a 3604 3603 11
a 3604 3605 50
a 3605 3606 23
a 3605 8620 29
a 3605 3604 50
a 3606 5337 6
a 3606 3605 23
a 3606 3607 37
a 3607 3604 18
a 3607 3606 37
a 3607 3600 21
a 3608 10631 3
a 3608 5318 2
a 3608 5350 17
a 3609 5353 8
a 3609 5358 2
a 3609 11756 48
a 3610 4805 13
a 3610 9967 6
a 3610 3612 25
a 3611 9966 4
a 3611 11223 5
a 3611 4806 40
a 3612 5353 11
a 3612 12205 7
a 3612 3610 25
a 3612 4806 12
a 3613 3783 24
a 3614 3887 14
a 3614 4035 25
a 3614 3713 44
a 3614 3713 42
a 3615 3729 12
a 3615 3706 12
a 3615 12127 9
a 3616 2606 2
a 3616 3752 4
a 3616 2736 34
a 3617 3708 9
a 3617 4077 16
a 3617 3994 14
a 3618 3649 14
a 3618 9719 30
a 3618 2733 28
a 3619 8843 17
a 3619 3902 13
a 3619 3773 25
a 3620 3983 10
a 3620 3822 18
a 3620 9473 19
a 3621 3780 11
a 3621 3832 10
a 3621 3869 16
a 3621 3775 38
a 3622 2738 11
a 3622 2193 27
a 3622 2739 10
a 3622 3809 28
a 3623 1809 10
a 3623 2597 11
a 3623 3785 9
a 3624 13225 1
a 3624 4084 9
a 3625 2721 9
a 3625 3222 35
a 3625 7949 47
a 3626 3806 11
a 3626 2604 9
a 3626 1810 8
a 3627 11552 4
a 3627 277 7
a 3627 3893 7
a 3628 2730 7
a 3628 4014 37
a 3628 2729 24
a 3629 3682 23
a 3629 4083 14
a 3629 9856 44
a 3630 12935 5
a 3630 12934 1
a 3630 3893 42
a 3631 3803 8
a 3631 12399 38
a 3631 10394 6
a 3632 7403 3
a 3632 3823 26
a 3632 3713 7
a 3633 7325 12
a 3633 4049 11
a 3633 3947 22
a 3633 8846 33
a 3634 3043 8
a 3634 3694 8
a 3634 3840 21
a 3635 8935 13
a 3635 11983 17
a 3635 3704 44
a 3636 13571 1
a 3636 9493 4
a 3636 3762 17
a 3637 4085 17
a 3638 10340 33
a 3638 9111 19
a 3638 12412 4
a 3639 3814 16
a 3639 3950 13
a 3639 9612 26
a 3640 3835 9
a 3640 6033 2
a 3640 7867 6
a 3641 3748 29
a 3641 3871 10
a 3641 3931 13
a 3642 11367 7
a 3642 4102 14
a 3642 8314 9
a 3643 3869 25
a 3644 3685 11
a 3644 8839 24
a 3644 3974 11
a 3645 8829 15
a 3645 3835 15
a 3645 11256 66
a 3646 3793 11
a 3646 12452 9
a 3646 3943 14
a 3647 11381 6
a 3647 3879 31
a 3647 2579 12
a 3648 3768 23
a 3649 3618 14
a 3649 12732 37
a 3649 4092 31
a 3650 8838 12
a 3650 3974 19
a 3650 8839 16
a 3651 4002 22
a 3651 3801 12
a 3651 3819 12
a 3652 2871 4
a 3652 3975 6
a 3652 3708 16
a 3653 2792 34
a 3653 4010 14
a 3653 2707 9
a 3654 277 16
a 3654 276 22
a 3654 13218 39
a 3655 2708 12
a 3655 2792 6
a 3655 4010 24
a 3656 3881 17
a 3656 2736 17
a 3656 3821 11
a 3657 3841 16
a 3657 4013 9
a 3658 3845 3
a 3658 8544 9
a 3658 10976 19
a 3659 3687 16
a 3659 7653 9
a 3660 10926 4
a 3660 12054 1
a 3661 4019 6
a 3661 3802 12
a 3661 3759 16
a 3662 2590 16
a 3662 1806 5
a 3662 4020 5
a 3663 3812 9
a 3663 3721 35
a 3663 3929 17
a 3664 2696 14
a 3664 12786 38
a 3664 2695 17
a 3665 3669 8
a 3665 3810 33
a 3665 11489 44
a 3666 3954 6
a 3666 2791 5
a 3666 2790 40
a 3667 3836 7
a 3667 3718 9
a 3667 3782 20
a 3668 3892 4
a 3668 3964 6
a 3668 3709 12
a 3669 3953 10
a 3669 3900 21
a 3669 3665 8
a 3670 3849 8
a 3670 3875 25
a 3671 3676 24
a 3671 3683 80
a 3672 3671 11
a 3672 8840 16
a 3673 4050 10
a 3674 3850 10
a 3674 8612 16
a 3674 9028 2
a 3675 3895 12
a 3675 4049 22
a 3675 8845 25
a 3676 8839 12
a 3676 3671 24
a 3676 8838 32
a 3676 8840 12
a 3677 12294 1
a 3677 11260 5
a 3677 2685 5
a 3678 2198 1
a 3678 3987 16
a 3678 10044 5
a 3679 3871 23
a 3679 3962 19
a 3679 3997 9
a 3680 8671 16
a 3680 7961 22
a 3681 3757 9
a 3681 4043 11
a 3681 3901 8
a 3681 3716 16
a 3682 3629 23
a 3683 8838 11
a 3683 3773 53
a 3684 2190 31
a 3684 3886 18
a 3684 9824 10
a 3684 8382 11
a 3685 3644 11
a 3685 8839 27
a 3685 3990 19
a 3686 3981 9
a 3686 8355 4
a 3686 3819 23
a 3687 12606 2
a 3687 3659 16
a 3687 3827 33
a 3688 3993 16
a 3688 3975 6
a 3688 3084 6
a 3689 1810 11
a 3689 12758 4
a 3689 3806 13
a 3690 4082 6
a 3690 12386 4
a 3690 4026 12
a 3690 3711 26
a 3691 4031 8
a 3692 3699 10
a 3693 3801 14
a 3694 3634 8
a 3694 3106 8
a 3694 3011 21
a 3695 4132 27
a 3695 3728 16
a 3696 3916 8
a 3696 12611 22
a 3696 12689 12
a 3697 4025 6
a 3697 3703 44
a 3697 3721 8
a 3698 3914 32
a 3699 9682 10
a 3699 3884 12
a 3699 3692 10
a 3700 11661 9
a 3700 7947 30
a 3700 2578 19
a 3701 8528 14
a 3701 4016 11
a 3701 3299 8
a 3702 3921 9
a 3702 12548 20
a 3702 3727 15
a 3703 8279 2
a 3703 3697 44
a 3703 3747 12
a 3704 3635 44
a 3705 3867 11
a 3705 3997 41
a 3705 3982 28
a 3706 3890 25
a 3706 4055 7
a 3706 3615 12
a 3707 3923 7
a 3708 3787 9
a 3708 3617 9
a 3708 3652 16
a 3708 7703 12
a 3709 3723 30
a 3709 3668 12
a 3710 4013 16
a 3710 10043 4
a 3710 2189 5
a 3711 3941 8
a 3711 3690 26
a 3711 4026 13
a 3712 3741 37
a 3712 7093 9
a 3712 8346 8
a 3713 3614 42
a 3713 3614 44
a 3713 3632 7
a 3714 3659 8
a 3714 4071 32
a 3715 4069 7
a 3715 12998 18
a 3715 5323 12
a 3716 3904 10
a 3716 8330 7
a 3716 3681 16
a 3717 3769 7
a 3717 9080 23
a 3717 11994 29
a 3718 3852 24
a 3718 3980 23
a 3718 3667 9
a 3719 3938 22
a 3719 2113 7
a 3719 3896 9
a 3720 2578 14
a 3721 3663 35
a 3721 3963 8
a 3721 3697 8
a 3722 7609 8
a 3722 4072 7
a 3722 4072 35
a 3723 3709 28
a 3723 3875 35
a 3724 13556 10
a 3724 12389 6
a 3725 3832 43
a 3725 3818 10
a 3726 4251 1
a 3726 12520 4
a 3726 278 8
a 3727 2684 12
a 3727 13203 2
a 3727 12929 2
a 3727 3702 15
a 3728 4136 6
a 3728 3695 16
a 3729 3615 12
a 3730 2740 10
a 3730 3874 10
a 3730 2737 9
a 3731 3148 9
a 3731 4062 5
a 3731 3909 51
a 3732 10296 12
a 3732 3051 16
a 3732 3837 60
a 3733 8279 2
a 3734 3990 13
a 3734 4032 12
a 3734 3968 34
a 3734 8840 35
a 3735 2756 22
a 3735 9382 14
a 3735 11968 20
a 3735 4011 22
a 3736 7911 11
a 3736 2748 2
a 3736 2759 12
a 3737 3116 21
a 3737 3111 35
a 3737 2951 26
a 3738 1805 4
a 3738 2591 1
a 3738 3928 16
a 3739 3963 17
a 3739 4072 11
a 3739 12058 24
a 3740 12243 2
a 3740 9853 15
a 3741 3961 15
a 3741 3712 37
a 3741 3842 14
a 3742 3890 8
a 3743 8258 10
a 3743 3805 10
a 3743 3808 5
a 3743 3820 5
a 3744 3970 6
a 3744 2749 39
a 3744 3976 64
a 3745 12229 1
a 3745 3802 8
a 3745 9045 14
a 3746 4007 23
a 3746 4047 6
a 3746 12591 7
a 3747 3703 12
a 3747 3916 12
a 3747 3791 10
a 3748 3641 29
a 3748 3948 15
a 3748 3931 29
a 3749 3872 40
a 3750 4025 9
a 3750 12399 11
a 3750 12114 26
a 3751 10904 8
a 3751 13171 12
a 3751 4018 9
a 3752 3616 4
a 3752 2190 7
a 3752 8382 33
a 3753 4040 19
a 3753 3845 29
a 3753 10977 12
a 3754 2784 28
a 3755 3988 4
a 3756 3801 7
a 3757 3681 9
a 3757 3901 25
a 3757 8365 10
a 3757 4048 10
a 3758 3897 11
a 3758 3978 16
a 3758 3978 34
a 3759 11850 12
a 3759 3784 4
a 3759 3661 16
a 3760 13221 2
a 3760 276 3
a 3761 3872 9
a 3761 4058 49
a 3761 3828 47
a 3762 8917 1
a 3762 3636 17
a 3762 8636 9
a 3763 3945 30
a 3763 3825 6
a 3763 3994 9
a 3763 4053 9
a 3764 3868 27
a 3765 3779 8
a 3765 3899 42
a 3765 4003 9
a 3766 9116 13
a 3766 4043 8
a 3767 3820 7
a 3768 9384 24
a 3768 3781 18
a 3768 3648 23
a 3769 3951 10
a 3769 3717 7
a 3769 9079 39
a 3769 9473 14
a 3770 11715 27
a 3770 2939 4
a 3770 3057 2
a 3771 3890 8
a 3771 3956 5
a 3771 13262 16
a 3772 3888 62
a 3772 3774 10
a 3772 2784 10
a 3773 10082 7
a 3773 3619 25
a 3773 8842 39
a 3774 12595 23
a 3774 3788 13
a 3774 3772 10
a 3775 402 17
a 3775 2731 5
a 3775 3621 38
a 3776 8283 1
a 3776 4035 7
a 3776 8281 9
a 3777 3918 9
a 3777 7471 6
a 3777 3995 29
a 3778 8787 3
a 3778 3844 17
a 3779 3950 9
a 3779 3765 8
a 3779 3836 42
a 3780 3621 11
a 3780 3834 7
a 3780 3905 16
a 3780 8368 29
a 3781 7094 9
a 3781 4030 55
a 3781 3768 18
a 3782 3667 20
a 3782 3980 9
a 3782 4045 5
a 3783 9187 9
a 3783 9186 6
a 3783 3613 24
a 3784 3759 4
a 3785 3811 11
a 3785 3623 9
a 3785 3922 9
a 3786 3888 9
a 3787 3993 9
a 3787 3708 9
a 3787 3975 16
a 3787 3863 9
a 3788 2718 9
a 3788 2788 14
a 3788 2781 56
a 3788 3774 13
a 3789 3111 11
a 3790 8381 16
a 3790 3979 10
a 3791 3747 10
a 3791 8566 8
a 3792 3961 46
a 3792 3954 10
a 3792 10035 25
a 3793 3646 11
a 3793 3910 10
a 3793 4039 13
a 3793 3971 10
a 3794 10310 7
a 3794 13571 8
a 3794 8917 22
a 3795 11736 16
a 3795 11189 16
a 3795 3822 15
a 3795 8732 21
a 3796 7355 7
a 3796 4066 11
a 3796 3848 30
a 3797 5375 5
a 3797 8630 6
a 3797 5316 27
a 3798 13190 15
a 3798 11295 60
a 3798 2706 13
a 3798 3824 15
a 3799 8842 12
a 3799 4070 12
a 3799 13325 7
a 3799 8843 16
a 3800 3981 11
a 3800 3967 26
a 3800 3972 11
a 3801 3693 14
a 3801 3826 10
a 3801 3756 7
a 3801 3651 12
a 3802 13213 2
a 3802 3661 12
a 3802 3745 8
a 3802 4056 14
a 3803 3631 8
a 3803 3804 19
a 3803 3834 36
a 3804 4011 5
a 3804 2756 20
a 3804 3803 19
a 3805 10396 17
a 3805 3932 16
a 3805 3743 10
a 3806 3626 11
a 3806 3689 13
a 3806 2603 12
a 3807 3992 6
a 3807 3314 6
a 3807 4239 9
a 3808 8364 14
a 3808 8256 5
a 3808 3743 5
a 3809 9481 10
a 3809 2736 11
a 3809 3622 28
a 3809 3821 26
a 3810 3665 33
a 3811 2199 7
a 3811 3785 11
a 3811 2198 5
a 3812 12397 4
a 3812 11649 4
a 3812 3663 9
a 3813 13212 2
a 3813 4105 8
a 3813 7701 12
a 3814 3639 16
a 3814 3856 9
a 3814 9612 11
a 3815 9823 17
a 3815 2574 37
a 3815 11381 5
a 3816 13218 1
a 3816 3949 10
a 3817 2099 6
a 3817 9678 4
a 3817 4029 23
a 3818 7859 2
a 3818 12057 2
a 3819 3998 8
a 3819 3651 12
a 3819 3686 23
a 3820 3767 7
a 3820 3743 5
a 3820 8283 7
a 3821 2740 11
a 3821 3656 11
a 3821 1808 25
a 3821 3809 26
a 3822 3795 15
a 3822 7349 17
a 3822 3620 18
a 3823 3995 8
a 3823 3632 26
a 3823 3918 18
a 3824 8348 18
a 3824 2671 33
a 3824 3798 15
a 3825 3763 6
a 3826 3801 10
a 3827 7691 8
a 3827 4071 29
a 3827 3687 33
a 3827 7617 31
a 3828 4058 9
a 3828 3761 47
a 3828 8733 9
a 3829 3968 18
a 3829 10031 19
a 3829 3990 15
a 3830 13196 1
a 3830 12452 8
a 3830 12088 12
a 3831 2939 11
a 3831 4000 30
a 3831 3955 12
a 3832 3621 10
a 3832 402 40
a 3832 3725 43
a 3833 3880 12
a 3833 2142 12
a 3833 10295 11
a 3834 3780 7
a 3834 12399 7
a 3834 3803 36
a 3835 3908 25
a 3835 3640 9
a 3835 3645 15
a 3836 3667 7
a 3836 3899 8
a 3836 3779 42
a 3837 10296 1
a 3837 2970 16
a 3837 3732 60
a 3838 2578 13
a 3838 2587 10
a 3838 3966 26
a 3839 12128 5
a 3839 3952 10
a 3839 3977 13
a 3840 3634 21
a 3840 3011 8
a 3840 3076 8
a 3841 3657 16
a 3841 3924 5
a 3841 10043 1
a 3842 4030 18
a 3842 3954 17
a 3842 3741 14
a 3843 13171 5
a 3843 4038 1
a 3844 12989 7
a 3844 7695 27
a 3845 3753 29
a 3845 4064 16
a 3845 3658 3
a 3846 3214 6
a 3846 2662 2
a 3846 12432 3
a 3847 3858 20
a 3847 8063 13
a 3847 2135 32
a 3848 3965 31
a 3848 3796 30
a 3848 7627 18
a 3849 3670 8
a 3849 4022 31
a 3850 8529 6
a 3850 3674 10
a 3850 12084 9
a 3851 9824 11
a 3851 8381 1
a 3851 3924 4
a 3852 3718 24
a 3852 3957 9
a 3852 5356 6
a 3853 4062 16
a 3853 3985 11
a 3853 2928 21
a 3854 10037 4
a 3854 10038 4
a 3854 3933 40
a 3855 3970 14
a 3856 3877 10
a 3856 4003 43
a 3856 3814 9
a 3857 9020 2
a 3857 7064 5
a 3857 7063 7
a 3858 3006 13
a 3858 3847 20
a 3858 12508 10
a 3859 4034 15
a 3860 13327 1
a 3860 8149 8
a 3861 3998 17
a 3861 4001 33
a 3861 4002 9
a 3862 4052 20
a 3862 8259 6
a 3862 11268 1
a 3863 3787 9
a 3864 3911 3
a 3864 12486 2
a 3864 9578 15
a 3865 4063 20
a 3865 2968 9
a 3866 12053 3
a 3866 13238 1
a 3867 3705 11
a 3867 4031 22
a 3867 3950 6
a 3868 3764 27
a 3868 7654 15
a 3869 3621 16
a 3869 3643 25
a 3869 12032 18
a 3870 12115 1
a 3870 5990 6
a 3870 11649 17
a 3871 3641 10
a 3871 3948 36
a 3871 3679 23
a 3872 3761 9
a 3872 8611 13
a 3872 3749 40
a 3872 12470 43
a 3873 5982 19
a 3873 5984 12
a 3873 9345 3
a 3874 2197 19
a 3874 3730 10
a 3874 7043 45
a 3875 3944 7
a 3875 3670 25
a 3875 3723 35
a 3876 11721 21
a 3877 3856 10
a 3877 7700 14
a 3877 13211 30
a 3878 4242 22
a 3878 12058 28
a 3878 4241 11
a 3879 2575 8
a 3879 2574 12
a 3879 3647 31
a 3880 3833 12
a 3880 2118 10
a 3880 2124 10
a 3880 2125 21
a 3881 13188 4
a 3881 1808 7
a 3881 2606 6
a 3881 3656 17
a 3882 3890 9
a 3882 7910 14
a 3882 2756 9
a 3882 4085 19
a 3883 3994 5
a 3884 3699 12
a 3884 4065 9
a 3884 3959 16
a 3885 8309 23
a 3885 11483 29
a 3886 2191 19
a 3886 3684 18
a 3886 4060 10
a 3886 3940 10
a 3887 3614 14
a 3887 8281 10
a 3887 10396 24
a 3888 3786 9
a 3888 3772 62
a 3888 2784 31
a 3889 3938 10
a 3889 2114 10
a 3889 3896 22
a 3890 3882 9
a 3890 3706 25
a 3890 3742 8
a 3890 3771 8
a 3891 10929 2
a 3891 11060 9
a 3891 12056 4
a 3892 3668 4
a 3892 7405 15
a 3892 12519 7
a 3892 3959 35
a 3893 12810 5
a 3893 3630 42
a 3893 3627 7
a 3894 4061 17
a 3894 4061 26
a 3894 12990 3
a 3895 4070 12
a 3895 3675 12
a 3895 8844 41
a 3896 2133 10
a 3896 3889 22
a 3896 3719 9
a 3896 2114 18
a 3897 8062 9
a 3897 3758 11
a 3897 8063 20
a 3898 3965 14
a 3898 3906 5
a 3898 7626 11
a 3899 3765 42
a 3899 3836 8
a 3899 3957 10
a 3900 3669 21
a 3901 3681 8
a 3901 3911 16
a 3901 3757 25
a 3902 3974 13
a 3902 3619 13
a 3902 8838 29
a 3903 11273 20
a 3903 4034 6
a 3903 3308 25
a 3904 3716 10
a 3904 4044 13
a 3904 4043 26
a 3905 3780 16
a 3905 8368 24
a 3905 10382 6
a 3906 3898 5
a 3906 4076 11
a 3906 4066 36
a 3907 8663 17
a 3907 8732 10
a 3907 11189 28
a 3908 3835 25
a 3908 3992 4
a 3908 6030 9
a 3909 2928 4
a 3909 2888 15
a 3909 3731 51
a 3910 3943 15
a 3910 4009 9
a 3910 3793 10
a 3911 3864 3
a 3911 3901 16
a 3912 2584 9
a 3912 2583 6
a 3912 3966 36
a 3913 4039 17
a 3913 3959 20
a 3913 4009 10
a 3914 2970 35
a 3914 2925 19
a 3914 3698 32
a 3915 3996 4
a 3915 2686 22
a 3915 2672 6
a 3916 4067 10
a 3916 3696 8
a 3916 3747 12
a 3917 9125 19
a 3917 9125 28
a 3917 2676 23
a 3918 3777 9
a 3918 7402 22
a 3918 3823 18
a 3919 12647 1
a 3919 10380 5
a 3919 4090 17
a 3920 3261 18
a 3920 3238 66
a 3920 11304 18
a 3921 11473 8
a 3921 3702 9
a 3921 9187 27
a 3922 3973 11
a 3922 3785 9
a 3922 2604 8
a 3923 3707 7
a 3923 4078 38
a 3923 10379 13
a 3924 3979 16
a 3924 3851 4
a 3924 3841 5
a 3925 7846 17
a 3925 9823 11
a 3925 12576 2
a 3926 12471 1
a 3926 12072 27
a 3927 7941 2
a 3928 2196 8
a 3928 2601 7
a 3928 3738 16
a 3929 3663 17
a 3929 3956 33
a 3930 10397 1
a 3931 3748 29
a 3931 3641 13
a 3931 9108 9
a 3932 3805 16
a 3932 4041 10
a 3933 2791 5
a 3933 3854 40
a 3933 2788 34
a 3934 3989 18
a 3934 8532 10
a 3934 4081 11
a 3935 7338 13
a 3935 2146 12
a 3936 7733 20
a 3937 11113 9
a 3937 12755 5
a 3937 4003 9
a 3938 2144 11
a 3938 3889 10
a 3938 3719 22
a 3939 2730 16
a 3940 2188 18
a 3940 9824 18
a 3940 3886 10
a 3940 10043 11
a 3941 3711 8
a 3942 7408 3
a 3942 7856 11
a 3943 3910 15
a 3943 3646 14
a 3943 4009 24
a 3944 3670 18
a 3944 3849 22
a 3945 3763 30
a 3945 3021 6
a 3945 4077 6
a 3946 13398 13
a 3946 8062 15
a 3947 3633 22
a 3947 8846 45
a 3947 12767 22
a 3948 3748 15
a 3948 5994 16
a 3948 3871 36
a 3949 12810 6
a 3949 4036 8
a 3949 3816 10
a 3950 3639 13
a 3950 3779 9
a 3950 3867 6
a 3951 3769 10
a 3952 8918 10
a 3952 3839 10
a 3952 2678 13
a 3953 3669 10
a 3953 8259 14
a 3953 8355 44
a 3954 3666 6
a 3954 3792 10
a 3954 3842 17
a 3955 3032 7
a 3955 3057 46
a 3955 3831 12
a 3956 3771 5
a 3956 3929 36
a 3957 3852 9
a 3957 11113 42
a 3957 3899 10
a 3958 8935 16
a 3959 3892 35
a 3959 3913 20
a 3959 3884 16
a 3960 7766 2
a 3960 8786 6
a 3961 8695 8
a 3961 3741 15
a 3961 8337 8
a 3961 3792 46
a 3962 3679 19
a 3962 7700 10
a 3962 9612 16
a 3963 4067 11
a 3963 3721 8
a 3963 3739 17
a 3964 4017 3
a 3964 3668 6
a 3964 9186 39
a 3965 3898 14
a 3965 3848 31
a 3965 4066 40
a 3966 13176 9
a 3966 2602 11
a 3966 3838 26
a 3966 3912 36
a 3967 4081 9
a 3967 3988 9
a 3967 3800 26
a 3968 8844 14
a 3968 3829 18
a 3968 3734 34
a 3968 8846 13
a 3969 7482 18
a 3969 7558 2
a 3970 3855 14
a 3970 3744 6
a 3970 12647 26
a 3971 4065 13
a 3971 2720 19
a 3971 3793 10
a 3972 3988 23
a 3972 4019 9
a 3972 3800 11
a 3973 2199 5
a 3973 3922 11
a 3973 2603 13
a 3974 3650 19
a 3974 3902 13
a 3974 3644 11
a 3975 3787 16
a 3975 3652 6
a 3975 3688 6
a 3976 4255 4
a 3976 3744 64
a 3976 4260 7
a 3977 3839 13
a 3977 2677 5
a 3977 2681 10
a 3978 3758 16
a 3978 3758 34
a 3978 3116 30
a 3979 3924 16
a 3979 3657 10
a 3980 3718 23
a 3980 9108 8
a 3980 3782 9
a 3981 3800 11
a 3981 3686 9
a 3981 7472 3
a 3982 3705 28
a 3982 3997 33
a 3982 4045 9
a 3983 11303 1
a 3983 12475 10
a 3983 3620 10
a 3983 12324 10
a 3984 10296 22
a 3985 3853 11
a 3985 2939 7
a 3985 11714 11
a 3986 2735 10
a 3986 2192 11
a 3986 4060 13
a 3987 3678 16
a 3987 2598 10
a 3988 3755 4
a 3988 3972 23
a 3988 3967 9
a 3989 7472 2
a 3989 3934 18
a 3989 4001 18
a 3990 3734 13
a 3990 3829 15
a 3990 3685 19
a 3991 11552 8
a 3992 3908 4
a 3992 8829 6
a 3992 3807 6
a 3993 3787 9
a 3993 3688 16
a 3993 4046 5
a 3993 3084 24
a 3994 3617 14
a 3994 3763 9
a 3994 3883 5
a 3995 3823 8
a 3995 4019 6
a 3995 3777 29
a 3996 3915 4
a 3997 3705 41
a 3997 3679 9
a 3997 3982 33
a 3998 4001 13
a 3998 3861 17
a 3998 3819 8
a 3999 10040 10
a 4000 3148 7
a 4000 2939 10
a 4000 3831 30
a 4001 3998 13
a 4001 3989 18
a 4001 3861 33
a 4002 3651 22
a 4002 4089 5
a 4002 3861 9
a 4003 3765 9
a 4003 3856 43
a 4003 3937 9
a 4004 4056 3
a 4005 4063 16
a 4005 3165 15
a 4005 897 39
a 4006 12501 1
a 4006 12082 67
a 4006 4086 22
a 4007 8701 7
a 4007 3746 23
a 4007 4075 20
a 4008 2736 20
a 4008 2738 8
a 4008 8382 17
a 4009 3910 9
a 4009 3943 24
a 4009 3913 10
a 4010 3655 24
a 4010 2708 22
a 4010 3653 14
a 4011 3804 5
a 4011 4079 9
a 4011 3735 22
a 4012 7976 10
a 4012 4057 28
a 4012 4099 26
a 4013 3710 16
a 4013 11084 10
a 4014 7941 5
a 4014 7942 32
a 4014 3628 37
a 4015 5993 7
a 4015 5994 8
a 4015 10311 19
a 4015 4074 20
a 4016 3701 11
a 4016 4076 38
a 4016 4076 23
a 4017 3964 3
a 4017 12055 2
a 4017 12050 19
a 4018 8355 2
a 4018 3751 9
a 4018 10904 21
a 4019 3995 6
a 4019 3661 6
a 4019 3972 9
a 4020 4088 16
a 4020 3662 5
a 4020 8381 5
a 4021 4068 25
a 4022 2684 23
a 4022 12323 20
a 4022 3849 31
a 4023 12404 5
a 4023 2755 21
a 4023 4073 17
a 4023 399 12
a 4024 12649 2
a 4024 13317 10
a 4024 9493 15
a 4025 3697 6
a 4025 12398 2
a 4025 3750 9
a 4026 10975 6
a 4026 3690 12
a 4026 3711 13
a 4027 11890 5
a 4027 8675 17
a 4028 8102 13
a 4028 8106 2
a 4028 10222 12
a 4029 3817 23
a 4030 3842 18
a 4030 3781 55
a 4030 10036 24
a 4030 9747 72
a 4031 3691 8
a 4031 4045 21
a 4031 3867 22
a 4032 3734 12
a 4032 8149 2
a 4032 3672 34
a 4033 4063 39
a 4033 2046 41
a 4033 4091 6
a 4034 3903 6
a 4034 8794 21
a 4034 3859 15
a 4035 3776 7
a 4035 8532 9
a 4035 3614 25
a 4036 12472 6
a 4036 12473 2
a 4036 7765 24
a 4036 3949 8
a 4037 2684 12
a 4037 12594 3
a 4037 12036 29
a 4037 9385 20
a 4038 3843 1
a 4038 8259 6
a 4038 3911 16
a 4039 9644 13
a 4039 3913 17
a 4039 3793 13
a 4040 3753 19
a 4041 8567 3
a 4041 8256 14
a 4042 401 3
a 4042 2731 3
a 4042 10382 9
a 4043 3681 11
a 4043 3904 26
a 4043 3766 8
a 4044 3904 13
a 4045 4031 21
a 4045 3782 5
a 4045 3982 9
a 4046 3993 5
a 4047 12016 23
a 4047 12016 26
a 4047 3746 6
a 4048 3757 10
a 4048 9019 22
a 4049 3675 22
a 4049 3633 11
a 4049 8845 14
a 4050 8375 10
a 4050 2793 8
a 4050 3673 10
a 4051 13240 1
a 4051 8377 6
a 4052 3862 20
a 4053 3021 31
a 4053 3060 6
a 4053 3763 9
a 4053 2145 16
a 4054 13179 1
a 4054 8673 18
a 4054 4083 21
a 4055 3706 7
a 4056 11850 8
a 4056 4004 3
a 4056 3802 14
a 4057 4100 6
a 4057 4012 28
a 4057 12808 2
a 4058 3828 9
a 4058 3761 49
a 4058 3254 20
a 4059 2127 6
a 4059 9669 5
a 4060 3986 13
a 4060 8382 17
a 4060 2735 10
a 4060 3886 10
a 4061 3894 17
a 4061 3894 26
a 4061 8931 2
a 4062 3731 5
a 4062 3853 16
a 4062 2928 26
a 4063 3106 8
a 4063 4033 39
a 4063 4005 16
a 4063 3865 20
a 4064 8547 16
a 4064 8533 26
a 4064 3845 16
a 4065 3971 13
a 4065 3884 9
a 4065 9681 21
a 4066 3906 36
a 4066 3796 11
a 4066 3965 40
a 4067 3916 10
a 4067 3963 11
a 4067 12058 24
a 4068 2580 10
a 4068 2579 10
a 4068 4021 25
a 4069 3715 7
a 4069 11308 5
a 4069 7976 17
a 4070 3799 12
a 4070 3895 12
a 4070 10031 24
a 4071 2695 60
a 4071 3714 32
a 4071 3827 29
a 4072 3739 11
a 4072 3722 7
a 4072 3722 35
a 4073 12633 8
a 4073 4023 17
a 4073 2755 29
a 4074 5992 7
a 4074 8786 28
a 4074 4015 20
a 4075 12016 10
a 4075 4007 20
a 4075 7616 10
a 4076 3906 11
a 4076 4016 38
a 4076 4016 23
a 4077 3617 16
a 4077 3945 6
a 4077 2871 2
a 4078 2755 13
a 4078 3923 38
a 4078 2754 7
a 4079 4011 9
a 4080 1811 11
a 4080 12758 5
a 4080 2197 7
a 4081 3967 9
a 4081 3934 11
a 4081 7472 29
a 4082 3690 6
a 4083 9855 2
a 4083 4054 21
a 4083 8674 3
a 4083 3629 14
a 4084 13220 2
a 4084 13224 6
a 4085 13555 2
a 4085 3637 17
a 4085 3882 19
a 4086 4006 22
a 4086 11483 18
a 4086 7616 94
a 4087 2753 7
a 4088 4020 16
a 4088 3790 10
a 4089 4002 5
a 4090 2751 12
a 4090 11970 9
a 4090 3919 17
a 4091 3349 16
a 4091 2047 37
a 4092 401 17
a 4092 2734 6
a 4092 3649 31
a 4093 4094 27
a 4093 1623 39
a 4093 1600 14
a 4094 1623 8
a 4094 2775 9
a 4094 4095 51
a 4094 4093 27
a 4095 1574 14
a 4095 1622 13
a 4095 4094 51
a 4096 1521 28
a 4096 1786 3
a 4097 1381 10
a 4097 1351 10
a 4097 4098 13
a 4098 1350 9
a 4098 1382 9
a 4098 4097 13
a 4099 8820 4
a 4099 13210 2
a 4099 4012 26
a 4100 9610 11
a 4100 4057 6
a 4100 12809 1
a 4101 10872 2
a 4101 10872 44
a 4102 11314 1
a 4102 4126 25
a 4102 3642 14
a 4103 4126 11
a 4104 4105 40
a 4104 4123 26
a 4104 9615 20
a 4105 4104 40
a 4105 9615 14
a 4105 3813 8
a 4106 10873 11
a 4106 9608 5
a 4106 10875 7
a 4106 4107 5
a 4107 4106 5
a 4107 4107 43
a 4107 4107 43
a 4108 10185 1
a 4108 12495 9
a 4108 5849 17
a 4109 8587 10
a 4109 4110 22
a 4109 10185 12
a 4110 4125 10
a 4110 4113 15
a 4110 4109 22
a 4111 4121 15
a 4111 8913 5
a 4111 4115 17
a 4111 11991 21
a 4112 4122 9
a 4112 11326 4
a 4112 6058 15
a 4112 4121 10
a 4113 4110 15
a 4113 4114 14
a 4113 6058 13
a 4114 4125 7
a 4114 8316 10
a 4114 4113 14
a 4115 4121 16
a 4115 7943 4
a 4115 4111 17
a 4116 7943 16
a 4116 4117 21
a 4116 4119 31
a 4117 4116 21
a 4117 4120 20
a 4117 4119 9
a 4118 8586 10
a 4119 4117 9
a 4119 4116 31
a 4119 8316 9
a 4120 7943 8
a 4120 4122 8
a 4120 4117 20
a 4121 4111 15
a 4121 4115 16
a 4121 4112 10
a 4122 4112 9
a 4122 4120 8
a 4122 8316 35
a 4123 4104 26
a 4123 4124 34
a 4123 9613 11
a 4124 9609 28
a 4124 4123 34
a 4124 9613 17
a 4125 4126 9
a 4125 4114 7
a 4125 8676 16
a 4125 4110 10
a 4126 4103 11
a 4126 4125 9
a 4126 4102 25
a 4127 8675 3
a 4128 7814 8
a 4128 8284 1
a 4128 11521 25
a 4128 12608 14
a 4129 13180 1
a 4129 9757 42
a 4129 2670 34
a 4130 6374 16
a 4130 4134 14
a 4131 4130 26
a 4131 11531 11
a 4132 4131 8
a 4132 12689 5
a 4132 4133 12
a 4133 4132 12
a 4134 4135 18
a 4134 4130 14
a 4134 6374 23
a 4135 7480 18
a 4135 4134 18
a 4135 4238 19
a 4136 12364 3
a 4136 7480 19
a 4137 7977 5
a 4137 4139 16
a 4137 7343 16
a 4138 7975 7
a 4138 7049 8
a 4138 7976 9
a 4139 4137 16
a 4139 7050 9
a 4139 7975 29
a 4140 7934 13
a 4140 9002 4
a 4140 8724 4
a 4141 7264 19
a 4141 8629 7
a 4141 8637 14
a 4142 3312 33
a 4142 5214 6
a 4142 5233 44
a 4143 12980 1
a 4143 13344 1
a 4143 4278 11
a 4144 11345 3
a 4144 12979 12
a 4144 4268 12
a 4144 11344 4
a 4145 4265 8
a 4145 12376 1
a 4145 3312 13
a 4146 8534 7
a 4146 6893 8
a 4146 4473 6
a 4146 4384 18
a 4147 12737 1
a 4147 5215 30
a 4147 12981 5
a 4148 12968 3
a 4148 4149 6
a 4148 10883 9
a 4149 4427 3
a 4149 9936 2
a 4149 4148 6
a 4150 6995 6
a 4151 4394 11
a 4151 5003 17
a 4151 4508 12
a 4151 4560 35
a 4152 6915 3
a 4152 4485 14
a 4152 12087 12
a 4153 4534 40
a 4153 4354 28
a 4153 4404 11
a 4154 10756 1
a 4154 4395 37
a 4155 13001 13
a 4155 12824 5
a 4155 4395 46
a 4156 7589 3
a 4156 9283 5
a 4156 5110 17
a 4157 9149 19
a 4157 12345 24
a 4157 10676 7
a 4158 10551 16
a 4158 8434 12
a 4158 6401 16
a 4158 12686 37
a 4159 4160 4
a 4159 6615 13
a 4159 6364 39
a 4160 6531 14
a 4160 4159 4
a 4160 6558 40
a 4161 12476 2
a 4161 4162 51
a 4161 12477 4
a 4162 4163 21
a 4162 9324 5
a 4162 4161 51
a 4163 4164 19
a 4163 4162 21
a 4163 9130 7
a 4163 6590 28
a 4164 4166 6
a 4164 4163 19
a 4164 6736 3
a 4165 6395 10
a 4166 9129 10
a 4166 4164 6
a 4166 6395 24
a 4167 6386 12
a 4167 4168 24
a 4167 6540 3
a 4168 4169 43
a 4168 9282 8
a 4168 6418 11
a 4168 4167 24
a 4169 6420 9
a 4169 4168 43
a 4169 6435 27
a 4170 12476 18
a 4170 9150 6
a 4170 4171 16
a 4171 6590 8
a 4171 4172 33
a 4171 4170 16
a 4172 9232 17
a 4172 4173 15
a 4172 4171 33
a 4173 4993 15
a 4173 5009 29
a 4173 4172 15
a 4174 4993 12
a 4174 4980 10
a 4174 6510 27
a 4175 5048 16
a 4175 5013 10
a 4175 4987 12
a 4175 4992 12
a 4176 5024 24
a 4176 4177 10
a 4176 5004 8
a 4177 6451 25
a 4177 4176 10
a 4177 12630 20
a 4177 6510 12
a 4178 12938 1
a 4179 6391 9
a 4179 6645 9
a 4179 7370 8
a 4179 4180 37
a 4180 6547 8
a 4180 6888 8
a 4180 4179 37
a 4181 12279 1
a 4181 4183 14
a 4182 9768 2
a 4182 5950 12
a 4182 4190 11
a 4183 11325 3
a 4183 4184 12
a 4183 4181 14
a 4183 5926 5
a 4184 4183 12
a 4184 4209 10
a 4184 5932 13
a 4184 4194 17
a 4185 9722 5
a 4185 5932 20
a 4185 4213 29
a 4186 4193 9
a 4186 12279 11
a 4186 4210 14
a 4187 12278 1
a 4188 4189 6
a 4188 4190 46
a 4188 4192 23
a 4189 4188 6
a 4189 12622 11
a 4189 7208 6
a 4190 4192 10
a 4190 7861 19
a 4190 4188 46
a 4190 4182 11
a 4191 7861 4
a 4192 11790 5
a 4192 4190 10
a 4192 4188 23
a 4192 8336 25
a 4193 4186 9
a 4194 5931 9
a 4194 9806 5
a 4194 4184 17
a 4195 8327 17
a 4195 9779 6
a 4195 4200 42
a 4196 7175 17
a 4196 5872 16
a 4196 4198 34
a 4196 10833 16
a 4197 11499 5
a 4198 5874 6
a 4198 5885 3
a 4198 4196 34
a 4199 4216 5
a 4199 4200 6
a 4199 4217 37
a 4199 4217 20
a 4200 4199 6
a 4200 4228 22
a 4200 4201 31
a 4200 4195 42
a 4201 4202 9
a 4201 4200 31
a 4201 4228 18
a 4202 9379 8
a 4202 4201 9
a 4202 4227 25
a 4203 4223 6
a 4203 9379 6
a 4203 4224 29
a 4204 4223 7
a 4204 4205 27
a 4204 4219 25
a 4205 5928 11
a 4205 4219 6
a 4205 13115 1
a 4205 4204 27
a 4206 4207 3
a 4206 4218 6
a 4206 5927 11
a 4207 4206 3
a 4208 4214 27
a 4208 4209 9
a 4208 4213 9
a 4209 4184 10
a 4209 4210 9
a 4209 4208 9
a 4210 4209 9
a 4210 4186 14
a 4210 4211 18
a 4211 4214 9
a 4211 10865 30
a 4211 4210 18
a 4212 4214 9
a 4212 4213 31
a 4212 9781 10
a 4213 4212 31
a 4213 4208 9
a 4213 4185 29
a 4214 4212 9
a 4214 4211 9
a 4214 4208 27
a 4215 9380 5
a 4215 4225 29
a 4216 4199 5
a 4216 4229 11
a 4216 4217 19
a 4217 4199 20
a 4217 4199 37
a 4217 4216 19
a 4218 4221 6
a 4218 4206 6
a 4219 4222 6
a 4219 4205 6
a 4219 4218 36
a 4219 4204 25
a 4220 12370 4
a 4220 4221 9
a 4220 5925 16
a 4220 5918 15
a 4221 4225 6
a 4221 4218 6
a 4221 4220 9
a 4221 4222 36
a 4222 4223 28
a 4222 4224 6
a 4222 4219 6
a 4223 4203 6
a 4223 4222 28
a 4223 4204 7
a 4224 4222 6
a 4224 4215 6
a 4224 4226 6
a 4224 4203 29
a 4225 9381 6
a 4225 4221 6
a 4226 9379 29
a 4226 4227 6
a 4226 4224 6
a 4227 4228 6
a 4227 4226 6
a 4227 4202 25
a 4228 4200 22
a 4228 4227 6
a 4228 4201 18
a 4229 4216 11
a 4229 9380 17
a 4229 4230 5
a 4230 4229 5
a 4230 13116 7
a 4230 4231 24
a 4231 7903 6
a 4231 13116 13
a 4231 4230 24
a 4232 7194 33
a 4233 7194 19
a 4233 7452 5
a 4234 7452 7
a 4234 9342 9
a 4234 2437 15
a 4235 5800 3
a 4235 7640 13
a 4235 5807 24
a 4236 5814 9
a 4236 10437 11
a 4236 11856 35
a 4237 7453 1
a 4237 5717 19
a 4238 4239 16
a 4238 8660 45
a 4238 4135 19
a 4239 3807 9
a 4239 7481 34
a 4239 4238 16
a 4240 4249 18
a 4240 4246 17
a 4240 4250 7
a 4241 4246 6
a 4241 12611 20
a 4241 4243 21
a 4241 3878 11
a 4242 10378 2
a 4242 4243 15
a 4242 3878 22
a 4243 13264 1
a 4243 4244 11
a 4243 4241 21
a 4243 4242 15
a 4244 4243 11
a 4244 4246 24
a 4244 11776 35
a 4244 4245 17
a 4245 6023 30
a 4245 4244 17
a 4245 12621 7
a 4245 12242 51
a 4246 4241 6
a 4246 4247 30
a 4246 4244 24
a 4246 4240 17
a 4247 4248 4
a 4247 12611 12
a 4247 4246 30
a 4248 4247 4
a 4249 4240 18
a 4250 6021 11
a 4250 11313 3
a 4250 6022 9
a 4250 4240 7
a 4251 3726 1
a 4251 6014 19
a 4251 9060 7
a 4252 6012 11
a 4252 6011 13
a 4252 6004 34
a 4253 6012 13
a 4253 4263 8
a 4253 4254 19
a 4254 4253 19
a 4254 4261 28
a 4254 6011 8
a 4255 3976 4
a 4255 12553 1
a 4255 4256 25
a 4256 8942 3
a 4256 4255 25
a 4256 4261 6
a 4257 9620 7
a 4257 4258 8
a 4257 6009 26
a 4257 12700 12
a 4258 6010 11
a 4258 4257 8
a 4258 6003 10
a 4259 4260 24
a 4259 6018 35
a 4259 8563 15
a 4260 4259 24
a 4260 399 18
a 4260 3976 7
a 4261 4262 4
a 4261 4254 28
a 4261 4256 6
a 4262 4261 4
a 4263 4253 8
a 4263 6014 24
a 4263 13578 27
a 4264 9366 2
a 4264 12470 17
a 4264 8540 14
a 4265 4267 13
a 4265 4145 8
a 4265 12375 4
a 4265 11327 1
a 4266 4289 13
a 4266 12317 15
a 4266 4283 19
a 4267 4265 13
a 4267 12186 2
a 4267 4279 17
a 4268 12980 18
a 4268 11346 2
a 4268 4270 10
a 4268 4144 12
a 4269 8779 2
a 4269 4270 41
a 4269 4334 14
a 4269 7490 6
a 4270 12340 1
a 4270 4269 41
a 4270 4268 10
a 4271 4275 13
a 4271 12667 35
a 4271 4415 31
a 4272 4381 9
a 4272 9006 1
a 4272 4274 13
a 4273 13344 11
a 4273 3483 24
a 4273 4276 16
a 4274 4275 47
a 4274 4276 13
a 4274 4272 13
a 4275 4277 13
a 4275 4271 13
a 4275 4274 47
a 4276 4277 47
a 4276 4273 16
a 4276 4274 13
a 4277 3488 16
a 4277 4275 13
a 4278 13291 5
a 4278 4143 11
a 4278 4279 26
a 4279 4281 17
a 4279 4278 26
a 4279 4267 17
a 4280 4286 7
a 4280 4289 29
a 4280 4284 19
a 4281 4279 17
a 4281 4284 16
a 4281 4282 42
a 4282 9003 8
a 4282 10877 8
a 4282 4281 42
a 4283 10877 9
a 4283 4284 42
a 4283 4266 19
a 4284 4280 19
a 4284 4281 16
a 4284 4283 42
a 4285 4369 5
a 4285 4286 12
a 4285 10712 44
a 4286 4280 7
a 4286 4285 12
a 4286 4447 38
a 4287 8595 1
a 4287 3442 20
a 4288 4335 10
a 4288 12966 1
a 4288 7877 2
a 4289 9932 4
a 4289 4280 29
a 4289 4266 13
a 4290 4292 4
a 4291 4293 6
a 4292 4297 12
a 4292 4295 40
a 4292 4290 4
a 4293 4291 6
a 4293 4294 4
a 4293 4296 40
a 4293 4302 12
a 4294 4293 4
a 4295 9944 12
a 4295 4292 40
a 4295 4298 12
a 4296 12971 5
a 4296 4293 40
a 4296 4301 12
a 4297 4292 12
a 4297 4300 12
a 4297 4298 40
a 4298 4299 12
a 4298 4295 12
a 4298 4297 40
a 4299 4303 12
a 4299 4298 12
a 4299 4300 40
a 4300 4304 12
a 4300 4297 12
a 4300 4299 40
a 4301 4296 12
a 4301 4303 12
a 4301 4302 40
a 4302 4293 12
a 4302 4304 12
a 4302 4301 40
a 4303 4301 12
a 4303 4299 12
a 4303 4304 40
a 4304 4300 12
a 4304 4302 12
a 4304 4303 40
a 4305 12168 14
a 4306 12502 1
a 4307 13355 1
a 4308 12503 1
a 4308 4319 25
a 4308 10278 12
a 4309 12102 8
a 4309 4322 37
a 4309 4311 34
a 4310 4323 11
a 4310 12001 5
a 4310 4322 43
a 4311 4326 15
a 4311 4320 4
a 4311 4309 34
a 4312 7032 12
a 4312 4324 11
a 4312 4320 44
a 4313 4328 16
a 4313 4326 43
a 4313 4314 14
a 4314 4317 14
a 4314 12503 10
a 4314 4313 14
a 4315 10282 28
a 4316 10282 2
a 4316 8884 33
a 4317 4318 11
a 4317 8140 46
a 4317 4314 14
a 4318 4319 12
a 4318 4317 11
a 4318 8141 46
a 4319 8142 46
a 4319 4318 12
a 4319 4308 25
a 4320 4311 4
a 4320 4325 11
a 4320 4312 44
a 4321 4322 11
a 4321 4325 12
a 4321 4323 43
a 4322 4321 11
a 4322 4310 43
a 4322 4309 37
a 4323 4321 43
a 4323 4310 11
a 4323 4324 12
a 4324 4325 43
a 4324 4312 11
a 4324 4323 12
a 4325 4321 12
a 4325 4320 11
a 4325 4324 43
a 4326 4311 15
a 4326 4327 17
a 4326 4313 43
a 4327 7032 14
a 4327 4326 17
a 4327 4328 20
a 4328 4327 20
a 4328 4313 16
a 4328 7032 13
a 4329 9367 9
a 4330 4370 13
a 4330 4482 13
a 4330 4424 37
a 4331 1293 7
a 4332 4446 8
a 4332 6996 12
a 4332 5026 28
a 4333 4481 19
a 4333 4389 15
a 4334 12272 1
a 4334 4433 4
a 4334 4269 14
a 4335 8888 4
a 4335 4288 10
a 4335 4408 35
a 4336 4487 12
a 4336 4535 23
a 4336 4519 24
a 4337 4350 17
a 4337 4549 29
a 4337 4495 26
a 4338 4404 11
a 4338 4361 37
a 4338 4422 11
a 4339 4355 14
a 4339 9401 29
a 4339 2348 32
a 4340 4557 11
a 4340 4524 8
a 4340 4374 38
a 4341 8597 2
a 4341 4529 6
a 4341 4391 28
a 4342 4550 7
a 4342 4331 27
a 4343 4565 31
a 4343 2498 10
a 4343 2497 10
a 4344 4462 6
a 4344 4435 17
a 4344 4371 21
a 4345 4520 4
a 4345 11668 6
a 4345 11670 18
a 4346 9398 5
a 4346 9409 27
a 4346 9397 6
a 4347 4348 12
a 4347 4448 63
a 4347 4417 11
a 4348 4347 12
a 4348 4526 12
a 4348 4399 64
a 4349 4468 37
a 4349 4428 9
a 4349 2497 10
a 4350 4337 17
a 4350 4423 45
a 4350 4414 18
a 4350 4403 14
a 4351 4371 4
a 4352 4452 25
a 4352 4407 11
a 4352 4394 8
a 4353 9398 13
a 4353 9387 13
a 4353 9833 33
a 4354 4419 12
a 4354 4153 28
a 4354 4399 11
a 4355 4416 15
a 4355 4532 11
a 4355 4510 14
a 4355 4339 14
a 4356 4367 4
a 4356 4400 38
a 4357 4366 7
a 4357 12258 9
a 4357 4538 36
a 4358 1323 110
a 4358 72 7
a 4359 4464 11
a 4359 4370 15
a 4359 8892 25
a 4360 9401 7
a 4361 4503 11
a 4361 4419 11
a 4361 4338 37
a 4362 9445 6
a 4362 9369 44
a 4362 4472 14
a 4363 4504 15
a 4363 4456 32
a 4363 2373 12
a 4364 4475 10
a 4364 4562 34
a 4365 7582 8
a 4365 1282 19
a 4366 4357 7
a 4366 4383 12
a 4366 12985 49
a 4367 4400 15
a 4367 3430 2
a 4367 13360 8
a 4368 4430 38
a 4368 4428 9
a 4368 2496 53
a 4369 10718 11
a 4369 4285 5
a 4369 4543 20
a 4370 4330 13
a 4370 4382 34
a 4370 4359 15
a 4371 4435 6
a 4371 4351 4
a 4371 4344 21
a 4372 4431 11
a 4372 6927 11
a 4372 4416 63
a 4373 4543 17
a 4373 4539 18
a 4373 4447 17
a 4374 4537 9
a 4374 5003 11
a 4374 4340 38
a 4375 4512 9
a 4376 4565 6
a 4376 4468 6
a 4376 2497 33
a 4377 11324 1
a 4377 4459 15
a 4377 4551 10
a 4378 3449 15
a 4378 4505 29
a 4378 4505 43
a 4379 533 9
a 4379 532 7
a 4379 1273 28
a 4380 8888 8
a 4380 4491 18
a 4380 4547 8
a 4381 4272 9
a 4381 13254 2
a 4381 4415 8
a 4382 4424 14
a 4382 4370 34
a 4382 4540 15
a 4383 4366 12
a 4383 2356 31
a 4383 4392 31
a 4384 4392 12
a 4384 4146 18
a 4384 8834 37
a 4385 4468 6
a 4385 4430 6
a 4385 4428 38
a 4386 695 2
a 4386 85 57
a 4386 2561 68
a 4387 4493 11
a 4387 4513 46
a 4387 4422 11
a 4388 4532 11
a 4388 2375 9
a 4388 4401 30
a 4389 4417 12
a 4389 4333 15
a 4389 4426 48
a 4390 8892 6
a 4391 4409 14
a 4391 4529 39
a 4391 4341 28
a 4392 4506 12
a 4392 4383 31
a 4392 4384 12
a 4393 4556 12
a 4393 10986 11
a 4393 10988 32
a 4394 4560 25
a 4394 4151 11
a 4394 4352 8
a 4395 9444 6
a 4395 4512 13
a 4395 4155 46
a 4395 4154 37
a 4396 4511 13
a 4397 4438 32
a 4397 4438 43
a 4397 4465 6
a 4398 4457 27
a 4398 4492 6
a 4398 4559 31
a 4399 4448 12
a 4399 4354 11
a 4399 4348 64
a 4400 4367 15
a 4400 10987 7
a 4400 4356 38
a 4400 4552 32
a 4401 4418 11
a 4401 2376 11
a 4401 4388 30
a 4401 4546 46
a 4402 4524 11
a 4402 12982 10
a 4402 4469 38
a 4403 4553 36
a 4403 4350 14
a 4403 9370 40
a 4404 4338 11
a 4404 4419 32
a 4404 4153 11
a 4405 4557 12
a 4405 5194 8
a 4406 4454 34
a 4406 4467 13
a 4406 2381 11
a 4407 12981 7
a 4407 4352 11
a 4407 4413 25
a 4407 4469 17
a 4408 4335 35
a 4408 4539 14
a 4408 4432 12
a 4409 4458 12
a 4409 4391 14
a 4409 9938 17
a 4410 9350 1
a 4410 686 23
a 4411 12197 10
a 4411 4433 28
a 4411 4433 5
a 4412 6883 11
a 4412 9474 6
a 4412 4531 6
a 4413 4452 11
a 4413 4545 1
a 4413 4407 25
a 4414 4487 11
a 4414 4350 18
a 4414 4563 11
a 4414 4519 32
a 4415 13530 1
a 4415 4271 31
a 4415 4381 8
a 4416 2379 14
a 4416 4355 15
a 4416 4372 63
a 4417 4347 11
a 4417 4486 63
a 4417 4389 12
a 4418 4401 11
a 4418 4532 30
a 4418 4474 55
a 4418 4439 11
a 4419 4354 12
a 4419 4404 32
a 4419 4361 11
a 4420 9394 55
a 4420 11436 23
a 4420 4441 46
a 4421 4495 12
a 4421 10535 14
a 4422 4503 42
a 4422 4549 17
a 4422 4338 11
a 4422 4387 11
a 4423 4553 14
a 4423 4350 45
a 4423 4485 29
a 4424 4382 14
a 4424 13002 16
a 4424 4330 37
a 4425 4544 11
a 4425 6863 25
a 4425 6864 13
a 4426 10533 11
a 4426 4500 13
a 4426 4389 48
a 4427 4149 3
a 4427 9936 2
a 4427 10880 2
a 4428 4385 38
a 4428 4349 9
a 4428 4368 9
a 4429 4410 9
a 4429 3265 21
a 4430 4385 6
a 4430 2513 16
a 4430 4368 38
a 4431 4372 11
a 4431 2372 11
a 4431 2379 54
a 4432 4408 12
a 4432 4491 5
a 4432 3462 13
a 4433 4411 28
a 4433 4411 5
a 4433 4334 4
a 4434 6883 6
a 4434 4531 11
a 4434 9475 3
a 4435 4371 6
a 4435 4559 8
a 4435 4344 17
a 4436 4541 11
a 4436 4474 12
a 4436 4449 14
a 4436 11456 32
a 4437 4507 11
a 4437 9402 11
a 4437 9428 18
a 4438 4397 32
a 4438 4397 43
a 4438 4445 6
a 4439 11456 33
a 4439 4510 16
a 4439 4479 21
a 4439 4418 11
a 4440 9404 22
a 4440 9456 7
a 4440 4466 16
a 4441 9394 9
a 4441 9834 10
a 4441 4420 46
a 4442 2859 10
a 4442 2883 25
a 4442 11796 14
a 4443 4544 34
a 4443 12902 2
a 4443 12002 13
a 4443 4552 12
a 4444 9402 2
a 4444 9389 23
a 4444 4507 19
a 4445 4450 9
a 4445 4438 6
a 4445 4522 69
a 4446 9943 8
a 4446 5016 8
a 4446 4332 8
a 4447 12966 3
a 4447 4286 38
a 4447 4373 17
a 4448 4399 12
a 4448 4486 12
a 4448 4347 63
a 4449 4477 15
a 4449 9521 15
a 4449 4436 14
a 4450 4525 6
a 4450 4445 9
a 4450 4465 23
a 4451 2513 8
a 4451 2496 7
a 4451 2527 11
a 4452 4352 25
a 4452 4560 8
a 4452 4413 11
a 4453 2522 22
a 4453 4497 10
a 4453 13031 50
a 4454 4406 34
a 4454 9406 12
a 4454 4483 13
a 4455 12099 4
a 4455 4364 10
a 4456 4478 12
a 4456 9458 12
a 4456 4363 32
a 4457 4559 6
a 4457 4462 28
a 4457 4398 27
a 4457 4554 6
a 4458 4409 12
a 4458 4558 5
a 4458 4488 43
a 4459 13298 3
a 4459 9326 9
a 4459 4377 15
a 4460 4484 4
a 4461 4463 6
a 4461 4499 7
a 4461 4517 6
a 4461 4525 30
a 4462 4344 6
a 4462 4457 28
a 4462 4499 6
a 4463 4461 6
a 4463 4465 7
a 4463 4522 19
a 4463 4522 30
a 4464 4359 11
a 4464 4515 25
a 4464 4540 16
a 4465 4450 23
a 4465 4463 7
a 4465 4397 6
a 4466 9844 13
a 4466 4478 24
a 4466 4440 16
a 4467 4483 34
a 4467 4494 12
a 4467 4406 13
a 4468 4376 6
a 4468 4385 6
a 4468 4349 37
a 4469 4537 11
a 4469 4402 38
a 4469 4407 17
a 4470 90 44
a 4470 516 7
a 4470 517 47
a 4471 4521 34
a 4471 12967 8
a 4472 10535 5
a 4472 4362 14
a 4473 12362 2
a 4473 4146 6
a 4473 5296 11
a 4474 4436 12
a 4474 4546 11
a 4474 4418 55
a 4475 4567 34
a 4475 4471 10
a 4476 4484 18
a 4477 7793 11
a 4477 4449 15
a 4477 7783 16
a 4478 4456 12
a 4478 4504 25
a 4478 4466 24
a 4479 4510 26
a 4479 4528 27
a 4479 4439 21
a 4480 3265 6
a 4480 686 10
a 4480 4429 17
a 4481 4152 18
a 4481 4500 14
a 4482 10537 16
a 4482 4330 13
a 4482 5122 27
a 4483 4467 34
a 4483 4454 13
a 4483 4494 46
a 4484 4476 18
a 4484 4460 4
a 4484 4559 6
a 4485 4535 40
a 4485 4423 29
a 4485 4519 12
a 4485 4152 14
a 4486 4448 12
a 4486 12747 6
a 4486 4417 63
a 4487 4336 12
a 4487 10506 29
a 4487 4414 11
a 4488 8591 2
a 4488 4458 43
a 4488 4341 6
a 4489 2868 44
a 4489 3014 9
a 4489 11796 9
a 4490 13314 4
a 4490 4511 22
a 4490 12087 50
a 4491 4380 18
a 4491 4547 37
a 4491 4432 5
a 4492 4554 28
a 4492 7009 8
a 4492 4398 6
a 4493 4387 11
a 4493 4563 11
a 4493 4514 51
a 4494 4467 12
a 4494 9518 6
a 4494 4483 46
a 4495 4421 12
a 4495 4534 39
a 4495 4337 26
a 4496 519 10
a 4496 519 27
a 4497 4536 9
a 4497 4453 10
a 4497 4502 50
a 4498 2523 10
a 4498 2524 9
a 4498 4502 69
a 4499 4554 30
a 4499 4561 6
a 4499 4461 7
a 4499 4462 6
a 4500 4481 14
a 4500 12478 1
a 4500 4426 13
a 4500 4535 14
a 4501 11435 23
a 4502 2525 9
a 4502 4498 69
a 4502 13031 10
a 4502 4497 50
a 4503 4422 42
a 4503 4513 11
a 4503 4361 11
a 4504 9844 15
a 4504 4478 25
a 4504 4363 15
a 4505 4378 29
a 4505 4378 43
a 4505 3445 16
a 4506 4392 12
a 4506 12751 4
a 4506 4508 36
a 4506 4508 60
a 4507 9833 4
a 4507 4437 11
a 4507 4444 19
a 4508 12750 4
a 4508 4506 60
a 4508 4506 36
a 4508 4151 12
a 4509 9938 10
a 4509 3482 37
a 4509 3428 23
a 4510 4355 14
a 4510 4479 26
a 4510 4439 16
a 4511 7066 2
a 4511 4396 13
a 4511 4490 22
a 4512 4375 9
a 4512 4395 13
a 4512 4540 10
a 4513 4514 11
a 4513 4503 11
a 4513 4387 46
a 4514 4526 9
a 4514 4513 11
a 4514 4493 51
a 4515 10522 9
a 4515 8892 10
a 4515 4464 25
a 4516 11045 5
a 4516 2376 15
a 4516 2377 19
a 4517 4561 7
a 4517 4461 6
a 4517 12927 1
a 4518 9386 16
a 4518 9393 8
a 4519 4336 24
a 4519 4414 32
a 4519 4485 12
a 4520 4345 4
a 4521 4567 10
a 4521 11935 10
a 4522 4463 19
a 4522 4463 30
a 4522 4445 69
a 4523 4564 68
a 4523 2506 9
a 4523 2514 10
a 4524 4340 8
a 4524 4402 11
a 4524 4537 38
a 4525 4554 6
a 4525 4450 6
a 4525 7012 31
a 4525 4461 30
a 4526 4514 9
a 4526 4348 12
a 4526 10533 16
a 4527 2378 4
a 4528 6927 11
a 4528 4555 36
a 4528 4479 27
a 4529 8596 2
a 4529 4287 5
a 4529 4391 39
a 4530 9388 16
a 4530 9390 16
a 4530 11441 63
a 4531 9941 3
a 4531 4434 11
a 4531 4412 6
a 4532 4355 11
a 4532 4388 11
a 4532 4418 30
a 4533 10799 8
a 4533 11995 1
a 4534 10536 6
a 4534 4549 8
a 4534 4495 39
a 4534 4153 40
a 4535 4336 23
a 4535 4500 14
a 4535 4485 40
a 4536 2526 22
a 4536 4497 9
a 4536 2525 50
a 4537 4524 38
a 4537 4469 11
a 4537 4374 9
a 4538 12547 11
a 4538 4357 36
a 4538 9333 9
a 4539 4408 14
a 4539 3473 18
a 4539 4373 18
a 4540 4512 10
a 4540 4382 15
a 4540 4464 16
a 4541 4555 35
a 4541 2381 11
a 4541 4436 11
a 4542 10988 8
a 4542 7066 21
a 4542 6863 11
a 4542 4556 32
a 4543 4373 17
a 4543 4548 31
a 4543 4369 20
a 4544 4425 11
a 4544 4443 34
a 4544 12742 2
a 4544 4556 12
a 4545 4413 1
a 4546 4474 11
a 4546 2378 11
a 4546 4401 46
a 4547 8595 14
a 4547 4380 8
a 4547 4491 37
a 4548 3488 6
a 4548 4543 31
a 4548 3473 12
a 4549 4337 29
a 4549 4422 17
a 4549 4534 8
a 4550 7582 2
a 4550 4342 7
a 4550 1293 26
a 4551 3429 2
a 4551 4377 10
a 4551 9485 17
a 4552 10986 11
a 4552 4443 12
a 4552 4400 32
a 4553 4423 14
a 4553 4403 36
a 4553 9370 16
a 4554 4525 6
a 4554 4492 28
a 4554 4499 30
a 4554 4457 6
a 4555 4541 35
a 4555 4528 36
a 4555 11456 15
a 4556 4393 12
a 4556 4544 12
a 4556 4542 32
a 4557 4340 11
a 4557 5003 38
a 4557 12752 4
a 4557 4405 12
a 4558 4458 5
a 4559 4484 6
a 4559 4457 6
a 4559 4435 8
a 4559 4398 31
a 4560 4394 25
a 4560 4452 8
a 4560 4151 35
a 4561 4499 6
a 4561 10798 3
a 4561 4517 7
a 4562 4990 10
a 4562 4364 34
a 4563 4493 11
a 4563 10533 45
a 4563 4414 11
a 4564 4523 68
a 4564 2505 10
a 4564 2515 9
a 4565 2514 6
a 4565 4376 6
a 4565 4343 31
a 4566 4342 13
a 4566 11245 7
a 4567 4475 34
a 4567 4562 10
a 4568 9041 48
a 4568 12993 1
a 4568 5652 10
a 4568 10193 22
a 4569 4603 7
a 4569 4750 9
a 4569 4763 27
a 4570 9641 6
a 4570 267 6
a 4571 4599 9
a 4571 4761 25
a 4571 4704 9
a 4572 4758 64
a 4572 4687 9
a 4572 4711 7
a 4573 4630 49
a 4573 4743 9
a 4573 4628 9
a 4573 9992 11
a 4574 4768 10
a 4574 4619 46
a 4574 4647 7
a 4575 4673 13
a 4575 10276 3
a 4576 4601 7
a 4576 4772 7
a 4576 4636 49
a 4577 13594 7
a 4577 4770 18
a 4577 4611 34
a 4578 4607 7
a 4578 4708 39
a 4578 4588 32
a 4579 4751 10
a 4579 4764 44
a 4579 4602 9
a 4580 4658 11
a 4580 4724 48
a 4580 4732 10
a 4580 4589 4
a 4581 4651 9
a 4581 4616 9
a 4581 4740 62
a 4582 4603 30
a 4582 4618 8
a 4582 4763 8
a 4583 4632 9
a 4583 4738 9
a 4583 4745 7
a 4584 4735 9
a 4584 4708 7
a 4584 4694 46
a 4585 4639 13
a 4585 9993 1
a 4585 4669 34
a 4586 4685 23
a 4586 4769 6
a 4586 9529 6
a 4587 4630 11
a 4588 4757 4
a 4588 4607 28
a 4588 4578 32
a 4589 4580 4
a 4590 4764 10
a 4590 4722 24
a 4590 4602 44
a 4591 13164 1
a 4592 4616 8
a 4592 4725 8
a 4592 4604 40
a 4593 4610 42
a 4593 4697 32
a 4593 4637 9
a 4594 4734 15
a 4594 4653 11
a 4595 9411 9
a 4595 4718 21
a 4595 4596 6
a 4596 4670 13
a 4596 4758 9
a 4596 4595 6
a 4596 4687 43
a 4597 10270 6
a 4597 10260 3
a 4597 7883 4
a 4598 12354 2
a 4598 12251 6
a 4598 12913 9
a 4599 4613 34
a 4599 4639 8
a 4599 4571 9
a 4600 4754 2
a 4600 4732 54
a 4600 4768 9
a 4601 4620 15
a 4601 4576 7
a 4601 4640 6
a 4602 4579 9
a 4602 4679 24
a 4602 4590 44
a 4603 4631 7
a 4603 4569 7
a 4603 4582 30
a 4604 4642 9
a 4604 4725 37
a 4604 4592 40
a 4605 12907 2
a 4605 4656 9
a 4605 2487 63
a 4605 4748 10
a 4606 4732 10
a 4606 4619 9
a 4606 4768 51
a 4607 4588 28
a 4607 4747 7
a 4607 4578 7
a 4608 4622 20
a 4608 4629 11
a 4608 8734 18
a 4609 4690 12
a 4609 4677 18
a 4609 4670 9
a 4610 11018 2
a 4610 4593 42
a 4610 4633 24
a 4611 4712 15
a 4611 10000 29
a 4612 4752 11
a 4612 4766 14
a 4612 4657 22
a 4613 4599 34
a 4613 4625 9
a 4613 4667 9
a 4614 4713 12
a 4614 4659 13
a 4614 4644 8
a 4615 12893 1
a 4615 13160 2
a 4616 4581 9
a 4616 4592 8
a 4616 4642 51
a 4617 4737 5
a 4618 4631 34
a 4618 4701 8
a 4618 4582 8
a 4619 4606 9
a 4619 4634 8
a 4619 4574 46
a 4620 4705 7
a 4620 4601 15
a 4620 4655 59
a 4621 10264 1
a 4621 4675 7
a 4621 4720 16
a 4622 9638 8
a 4622 4762 26
a 4622 4608 20
a 4623 4627 9
a 4623 4658 59
a 4623 8708 10
a 4624 4737 8
a 4624 4691 12
a 4624 11804 4
a 4625 4613 9
a 4625 4639 34
a 4625 4669 8
a 4626 4692 10
a 4626 4656 52
a 4626 4675 11
a 4627 4680 9
a 4627 4623 9
a 4627 4665 68
a 4628 4644 49
a 4628 4698 10
a 4628 4573 9
a 4629 12873 1
a 4629 9639 18
a 4629 12046 18
a 4629 4608 11
a 4630 4644 10
a 4630 4587 11
a 4630 4573 49
a 4631 4728 7
a 4631 4603 7
a 4631 4618 34
a 4632 4583 9
a 4632 4753 82
a 4632 4755 71
a 4633 4677 9
a 4633 4661 15
a 4633 4610 24
a 4634 4619 8
a 4634 4710 7
a 4634 4647 45
a 4635 8737 2
a 4635 4654 26
a 4636 4645 10
a 4636 4649 9
a 4636 4576 49
a 4636 7637 4
a 4637 4593 9
a 4637 4661 9
a 4637 4670 25
a 4638 4687 7
a 4638 9528 16
a 4638 4733 11
a 4638 4652 10
a 4639 4585 13
a 4639 4599 8
a 4639 4625 34
a 4640 4601 6
a 4640 4760 30
a 4640 4725 28
a 4641 4729 3
a 4642 4604 9
a 4642 4740 7
a 4642 4616 51
a 4643 4717 44
a 4643 4733 11
a 4643 4751 9
a 4644 4630 10
a 4644 4628 49
a 4644 4614 8
a 4645 4730 11
a 4645 4636 10
a 4645 4668 68
a 4646 4707 27
a 4646 4738 6
a 4646 4724 7
a 4647 9411 8
a 4647 4574 7
a 4647 4670 10
a 4647 4634 45
a 4648 9529 24
a 4648 4685 9
a 4648 4662 10
a 4649 4655 18
a 4649 4770 11
a 4649 4636 9
a 4650 10266 1
a 4650 12342 5
a 4650 4591 10
a 4651 4705 40
a 4651 4581 9
a 4651 4664 7
a 4652 4667 24
a 4652 4729 7
a 4652 4638 10
a 4652 4749 9
a 4653 4674 12
a 4653 4682 41
a 4653 4709 27
a 4653 4594 11
a 4654 4635 26
a 4654 8736 1
a 4655 4649 18
a 4655 4678 10
a 4655 4620 59
a 4656 4626 52
a 4656 4605 9
a 4656 4706 9
a 4657 4723 10
a 4657 4698 9
a 4657 4612 22
a 4658 4580 11
a 4658 4665 10
a 4658 4623 59
a 4659 1666 54
a 4659 9817 2
a 4659 4614 13
a 4660 4672 57
a 4660 12909 3
a 4660 4686 8
a 4661 4637 9
a 4661 4633 15
a 4661 4690 9
a 4662 4648 10
a 4662 9528 25
a 4662 4669 10
a 4663 13594 11
a 4663 12240 17
a 4664 4701 14
a 4664 4651 7
a 4664 4703 77
a 4665 4658 10
a 4665 4702 9
a 4665 4627 68
a 4666 13106 3
a 4666 4678 10
a 4666 4716 22
a 4667 4613 9
a 4667 4652 24
a 4667 9528 10
a 4667 4761 9
a 4668 4772 10
a 4668 4742 48
a 4668 4645 68
a 4669 4662 10
a 4669 4585 34
a 4669 4625 8
a 4670 4596 13
a 4670 4647 10
a 4670 4609 9
a 4670 4637 25
a 4671 4755 11
a 4671 4693 12
a 4671 4684 23
a 4672 4696 8
a 4672 4691 8
a 4672 4660 57
a 4673 4700 10
a 4673 4689 70
a 4673 4575 13
a 4674 4653 12
a 4674 12872 2
a 4674 4741 31
a 4674 4699 17
a 4675 12341 3
a 4675 4733 42
a 4675 4621 7
a 4675 4626 11
a 4676 10279 2
a 4676 12241 1
a 4676 9998 2
a 4677 4690 15
a 4677 4633 9
a 4677 4609 18
a 4678 4666 10
a 4678 4655 10
a 4678 4683 49
a 4679 4722 44
a 4679 4602 24
a 4679 2487 10
a 4680 4627 9
a 4680 4693 10
a 4680 4730 52
a 4681 4760 6
a 4681 4719 6
a 4681 4771 31
a 4681 4724 17
a 4682 4741 13
a 4682 10272 13
a 4682 4653 41
a 4683 4744 11
a 4683 4705 8
a 4683 4716 18
a 4683 4678 49
a 4684 4671 23
a 4684 4695 17
a 4684 4745 50
a 4685 4586 23
a 4685 4694 9
a 4685 4648 9
a 4686 4696 58
a 4686 4660 8
a 4686 4715 7
a 4687 4697 7
a 4687 4572 9
a 4687 4596 43
a 4687 4638 7
a 4688 4713 13
a 4688 4752 19
a 4688 4723 20
a 4689 4726 11
a 4689 12914 6
a 4689 4673 70
a 4690 4677 15
a 4690 4661 9
a 4690 4609 12
a 4691 4672 8
a 4691 4624 12
a 4691 4749 34
a 4692 4717 10
a 4692 4626 10
a 4692 4706 52
a 4693 4702 66
a 4693 4680 10
a 4693 4671 12
a 4694 4756 9
a 4694 4685 9
a 4694 4584 46
a 4695 4707 34
a 4695 4684 17
a 4695 4745 40
a 4696 4704 7
a 4696 4672 8
a 4696 4686 58
a 4697 9329 4
a 4697 4687 7
a 4697 4593 32
a 4698 4657 9
a 4698 4628 10
a 4698 4713 41
a 4699 9639 3
a 4699 4674 17
a 4700 4743 9
a 4700 4673 10
a 4700 4726 64
a 4701 4618 8
a 4701 4728 37
a 4701 4664 14
a 4702 4693 66
a 4702 4665 9
a 4702 4707 7
a 4703 4740 7
a 4703 4760 8
a 4703 4664 77
a 4704 4696 7
a 4704 4715 58
a 4704 4571 9
a 4705 4651 40
a 4705 4620 7
a 4705 4683 8
a 4706 4692 52
a 4706 4722 10
a 4706 4656 9
a 4707 4702 7
a 4707 4646 27
a 4707 4695 34
a 4708 4584 7
a 4708 4757 24
a 4708 4578 39
a 4709 4699 12
a 4709 9638 2
a 4709 4653 27
a 4710 4634 7
a 4710 4714 9
a 4710 9411 43
a 4711 4572 7
a 4711 9529 8
a 4711 4721 64
a 4712 9999 8
a 4712 4663 43
a 4713 4614 12
a 4713 4688 13
a 4713 4698 41
a 4714 4710 9
a 4714 4718 6
a 4714 4724 7
a 4715 4686 7
a 4715 4704 58
a 4715 2870 9
a 4716 4750 9
a 4716 4683 18
a 4716 4666 22
a 4717 4643 44
a 4717 4692 10
a 4717 4739 9
a 4718 4746 7
a 4718 4714 6
a 4718 4595 21
a 4719 4747 7
a 4719 4731 6
a 4719 4681 6
a 4720 10265 1
a 4720 11956 2
a 4720 4650 4
a 4721 4758 7
a 4721 9530 7
a 4721 4711 64
a 4722 4679 44
a 4722 4706 10
a 4722 4590 24
a 4723 4657 10
a 4723 4688 20
a 4723 4752 16
a 4724 4580 48
a 4724 4646 7
a 4724 4714 7
a 4725 4592 8
a 4725 4640 28
a 4725 4604 37
a 4726 4766 9
a 4726 4689 11
a 4726 4700 64
a 4727 6892 15
a 4727 6971 26
a 4728 4631 7
a 4728 4701 37
a 4728 10352 2
a 4729 4737 55
a 4729 4652 7
a 4729 4641 3
a 4730 4645 11
a 4730 4742 11
a 4730 4680 52
a 4731 4746 8
a 4731 4719 6
a 4731 9530 26
a 4732 4606 10
a 4732 4580 10
a 4732 4600 54
a 4733 4638 11
a 4733 11318 3
a 4733 4675 42
a 4733 4643 11
a 4734 9637 1
a 4734 4709 21
a 4735 9530 12
a 4735 4584 9
a 4735 4756 46
a 4736 13103 3
a 4736 12920 4
a 4736 2807 27
a 4737 4729 55
a 4737 4624 8
a 4737 4617 5
a 4738 4583 9
a 4738 4646 6
a 4738 4772 25
a 4739 4764 10
a 4739 4717 9
a 4739 4751 44
a 4740 4642 7
a 4740 4703 7
a 4740 4581 62
a 4741 8738 19
a 4741 4674 31
a 4741 6971 57
a 4741 4682 13
a 4742 4730 11
a 4742 4753 11
a 4742 4668 48
a 4743 4573 9
a 4743 4700 9
a 4743 4766 58
a 4744 4750 23
a 4744 4763 10
a 4744 4683 11
a 4745 4583 7
a 4745 4684 50
a 4745 4695 40
a 4746 4731 8
a 4746 4718 7
a 4746 4758 39
a 4747 4719 7
a 4747 4607 7
a 4747 4757 30
a 4748 3152 9
a 4748 3069 69
a 4748 4605 10
a 4749 4761 24
a 4749 4652 9
a 4749 4691 34
a 4750 4569 9
a 4750 4716 9
a 4750 4744 23
a 4751 4579 10
a 4751 4739 44
a 4751 4643 9
a 4752 4688 19
a 4752 4612 11
a 4752 4723 16
a 4753 4742 11
a 4753 4755 11
a 4753 4632 82
a 4754 4600 2
a 4755 4753 11
a 4755 4671 11
a 4755 4632 71
a 4756 4769 13
a 4756 4694 9
a 4756 4735 46
a 4757 4588 4
a 4757 4747 30
a 4757 4708 24
a 4758 4572 64
a 4758 4596 9
a 4758 4721 7
a 4758 4746 39
a 4759 7880 6
a 4759 4615 15
a 4760 4703 8
a 4760 4681 6
a 4760 4640 30
a 4761 4749 24
a 4761 4667 9
a 4761 4571 25
a 4762 4570 2
a 4762 4622 26
a 4763 4569 27
a 4763 4582 8
a 4763 4744 10
a 4764 4590 10
a 4764 4739 10
a 4764 4579 44
a 4765 10277 1
a 4765 9746 9
a 4765 4306 4
a 4766 4612 14
a 4766 4726 9
a 4766 1666 12
a 4766 4743 58
a 4767 3069 8
a 4767 2487 6
a 4767 11128 45
a 4768 4574 10
a 4768 4606 51
a 4768 4600 9
a 4769 4756 13
a 4769 9530 31
a 4769 4586 6
a 4770 10000 9
a 4770 4577 18
a 4770 4649 11
a 4771 4681 31
a 4772 4668 10
a 4772 4576 7
a 4772 4738 25
a 4773 12847 1
a 4773 12848 9
a 4773 69 37
a 4774 13095 1
a 4774 6984 6
a 4774 6881 4
a 4775 13082 1
a 4775 7303 1
a 4776 10998 11
a 4776 4777 6
a 4777 12531 8
a 4778 1143 16
a 4778 6973 24
a 4778 753 36
a 4779 12844 1
a 4779 7365 26
a 4779 12843 5
a 4781 4782 1
a 4782 7282 1
a 4783 4795 4
a 4784 4807 24
a 4784 8765 10
a 4784 4800 19
a 4785 7429 51
a 4785 8770 9
a 4785 8771 13
a 4786 7496 10
a 4786 7497 53
a 4786 8762 13
a 4787 7497 15
a 4787 7429 19
a 4787 8766 33
a 4788 8770 7
a 4789 5373 3
a 4789 4790 2
a 4789 12760 3
a 4790 4789 2
a 4790 12761 3
a 4790 4803 11
a 4791 4792 2
a 4791 4802 25
a 4792 4790 20
a 4792 4793 11
a 4792 4791 2
a 4793 4792 11
a 4793 4794 11
a 4793 4804 40
a 4793 4803 31
a 4794 4795 28
a 4794 7498 9
a 4794 4793 11
a 4794 4797 32
a 4795 4794 28
a 4795 4783 4
a 4795 7427 13
a 4796 4797 4
a 4797 4803 10
a 4797 4796 4
a 4797 4794 32
a 4798 4799 9
a 4798 7498 23
a 4798 7498 52
a 4799 4798 9
a 4799 4804 10
a 4799 4800 18
a 4800 4799 18
a 4800 7427 32
a 4800 4784 19
a 4801 4802 2
a 4801 4792 25
a 4801 4804 10
a 4802 4801 2
a 4802 8768 10
a 4803 4797 10
a 4803 4790 11
a 4803 4793 31
a 4804 4799 10
a 4804 4801 10
a 4804 4793 40
a 4805 11223 6
a 4805 3610 13
a 4805 4806 27
a 4806 4805 27
a 4806 3612 12
a 4806 3611 40
a 4807 7425 13
a 4807 4784 24
a 4807 8759 19
a 4808 7421 6
a 4808 6933 36
a 4808 7499 7
a 4809 7014 12
a 4809 839 24
a 4809 11739 18
a 4810 834 12
a 4810 4814 14
a 4810 828 28
a 4811 839 12
a 4811 836 12
a 4811 4812 11
a 4812 4811 11
a 4813 832 10
a 4814 838 12
a 4814 833 13
a 4814 4810 14
a 4815 818 70
a 4815 838 9
a 4815 3491 13
a 4816 8045 24
a 4816 840 13
a 4816 846 32
a 4817 847 17
a 4817 817 8
a 4817 846 19
a 4818 9358 94
a 4819 11823 13
a 4820 4821 9
a 4820 2305 14
a 4821 4822 9
a 4821 4820 9
a 4821 4820 33
a 4822 4821 9
a 4822 2306 17
a 4822 4823 11
a 4823 4822 11
a 4823 11237 24
a 4823 4824 19
a 4824 11823 1
a 4824 2306 12
a 4824 4823 19
a 4825 4830 3
a 4826 4827 8
a 4826 11275 5
a 4826 4828 23
a 4827 4826 8
a 4827 2306 5
a 4827 4836 14
a 4828 4829 18
a 4828 4826 23
a 4828 11186 24
a 4829 4828 18
a 4830 11830 6
a 4830 4825 3
a 4830 11275 5
a 4831 11830 18
a 4832 11694 21
a 4832 738 21
a 4832 4833 26
a 4833 4834 24
a 4833 7430 38
a 4833 4832 26
a 4834 4833 24
a 4834 738 7
a 4835 10791 1
a 4835 10042 11
a 4835 2307 26
a 4836 11132 7
a 4836 4827 14
a 4836 9362 75
a 4837 8220 16
a 4837 4901 15
a 4837 4899 54
a 4837 4844 12
a 4838 4905 12
a 4838 10759 22
a 4839 4896 12
a 4839 4895 12
a 4839 4851 39
a 4839 4846 53
a 4840 7789 7
a 4840 7785 3
a 4840 7998 13
a 4841 4956 6
a 4841 9599 8
a 4841 7982 20
a 4842 4952 12
a 4842 4865 24
a 4843 4874 11
a 4843 4862 7
a 4844 4845 2
a 4844 4837 12
a 4844 4893 48
a 4845 4844 2
a 4846 12064 1
a 4846 4855 21
a 4846 4899 11
a 4846 4839 53
a 4847 4852 15
a 4848 4849 5
a 4849 4848 5
a 4849 4893 56
a 4849 4850 11
a 4849 8001 25
a 4850 4894 55
a 4850 10502 14
a 4850 4897 11
a 4850 4849 11
a 4851 4852 12
a 4851 4897 12
a 4851 7969 15
a 4851 4839 39
a 4852 9981 12
a 4852 4851 12
a 4852 4847 15
a 4852 4936 11
a 4853 4935 36
a 4853 9981 27
a 4853 4909 10
a 4853 4908 12
a 4854 4935 12
a 4854 4858 13
a 4854 4857 42
a 4855 4939 15
a 4855 4896 47
a 4855 4846 21
a 4856 4857 14
a 4856 4939 10
a 4856 4937 43
a 4857 4856 14
a 4857 10503 6
a 4857 4854 42
a 4857 4907 11
a 4858 4859 10
a 4858 4910 33
a 4858 4854 13
a 4859 4858 10
a 4859 4925 34
a 4859 4928 19
a 4860 4949 9
a 4860 4880 12
a 4860 4887 21
a 4860 4879 33
a 4861 4942 10
a 4861 4882 12
a 4861 4941 9
a 4862 4871 22
a 4862 13342 1
a 4862 4843 7
a 4863 4864 24
a 4863 8116 26
a 4864 4865 14
a 4864 4953 29
a 4865 4869 12
a 4865 4842 24
a 4865 4955 35
a 4866 4944 18
a 4866 4874 37
a 4866 4867 11
a 4867 4943 8
a 4867 4868 18
a 4868 9599 4
a 4868 4867 18
a 4868 4944 11
a 4869 4866 11
a 4869 4870 36
a 4869 4944 27
a 4870 4871 6
a 4870 4869 36
a 4870 4842 19
a 4871 4862 22
a 4871 4870 6
a 4871 4872 10
a 4871 4959 26
a 4872 4959 19
a 4872 4873 9
a 4872 4871 10
a 4873 4886 19
a 4873 4885 12
a 4873 4872 9
a 4874 4866 37
a 4874 4870 11
a 4875 4876 12
a 4875 4947 2
a 4875 4882 24
a 4876 13342 11
a 4876 4875 12
a 4876 4881 24
a 4876 4880 28
a 4877 4878 6
a 4877 7579 16
a 4878 4886 9
a 4878 4885 23
a 4878 4877 6
a 4879 4860 33
a 4880 4876 28
a 4880 4860 12
a 4880 10523 12
a 4881 4883 12
a 4881 4882 12
a 4881 4876 24
a 4882 4881 12
a 4882 4861 12
a 4882 4875 24
a 4883 4943 11
a 4883 4881 12
a 4883 4843 18
a 4884 4887 11
a 4884 4888 35
a 4884 55 17
a 4885 10523 13
a 4885 4878 23
a 4885 4873 12
a 4886 4959 5
a 4886 4878 9
a 4886 4873 19
a 4887 4884 11
a 4887 4860 21
a 4887 4888 28
a 4888 4889 32
a 4888 4887 28
a 4888 4884 35
a 4888 10523 9
a 4889 4888 32
a 4889 4877 5
a 4890 12074 2
a 4890 4891 41
a 4891 12077 5
a 4891 60 51
a 4891 4890 41
a 4892 4893 4
a 4893 4894 11
a 4893 4892 4
a 4893 4849 56
a 4893 4844 48
a 4894 7699 11
a 4894 4893 11
a 4894 4850 55
a 4894 4895 30
a 4895 4839 12
a 4895 4894 30
a 4895 4898 13
a 4895 4897 48
a 4896 4839 12
a 4896 4936 21
a 4896 4855 47
a 4897 4851 12
a 4897 4850 11
a 4897 4895 48
a 4898 4902 13
a 4898 4895 13
a 4898 7699 39
a 4899 4846 11
a 4899 4837 54
a 4899 4900 11
a 4900 4899 11
a 4900 4902 11
a 4900 4901 51
a 4901 4903 11
a 4901 4837 15
a 4901 4900 51
a 4902 4900 11
a 4902 4898 13
a 4902 4903 46
a 4903 4901 11
a 4903 7699 11
a 4903 4902 46
a 4904 4906 13
a 4904 6915 5
a 4905 12065 3
a 4905 4838 12
a 4905 4906 68
a 4906 4904 13
a 4906 12666 12
a 4906 4905 68
a 4907 4908 24
a 4907 4857 11
a 4907 4934 21
a 4908 4937 14
a 4908 4853 12
a 4908 4907 24
a 4908 4934 25
a 4909 4853 10
a 4909 4911 27
a 4909 4910 16
a 4910 4858 33
a 4910 4925 10
a 4910 4909 16
a 4911 4932 11
a 4911 10491 22
a 4911 4909 27
a 4912 4916 14
a 4912 10491 8
a 4912 4918 7
a 4913 10481 5
a 4913 4916 18
a 4913 4917 18
a 4914 4915 12
a 4914 4922 13
a 4914 4929 44
a 4915 9527 5
a 4915 4914 12
a 4915 4923 20
a 4916 4913 18
a 4916 4912 14
a 4916 4917 28
a 4917 4922 14
a 4917 4913 18
a 4917 4916 28
a 4918 4919 11
a 4918 4912 7
a 4918 4932 31
a 4919 4920 11
a 4919 4918 11
a 4919 4931 40
a 4920 4921 11
a 4920 4919 11
a 4920 4927 27
a 4921 4920 11
a 4921 4922 8
a 4921 4930 37
a 4922 4914 13
a 4922 4917 14
a 4922 4921 8
a 4923 4933 26
a 4923 4924 24
a 4923 4915 20
a 4924 4929 13
a 4924 4928 11
a 4924 4923 24
a 4925 4910 10
a 4925 4931 11
a 4925 4859 34
a 4925 4926 11
a 4926 4927 11
a 4926 4925 11
a 4926 4928 38
a 4927 4930 11
a 4927 4920 27
a 4927 4926 11
a 4928 4926 38
a 4928 4859 19
a 4928 4924 11
a 4929 4930 11
a 4929 4924 13
a 4929 4914 44
a 4930 4929 11
a 4930 4921 37
a 4931 4932 11
a 4931 4925 11
a 4931 4919 40
a 4932 4911 11
a 4932 4931 11
a 4932 4918 31
a 4933 4923 26
a 4934 4935 13
a 4934 4907 21
a 4934 4908 25
a 4935 4934 13
a 4935 4854 12
a 4935 4853 36
a 4936 4938 13
a 4936 4852 11
a 4936 4896 21
a 4937 4908 14
a 4937 4938 17
a 4937 4856 43
a 4938 4936 13
a 4938 4937 17
a 4938 4939 55
a 4939 4856 10
a 4939 4855 15
a 4939 4938 55
a 4940 10500 5
a 4940 7986 8
a 4940 7988 1
a 4941 12008 32
a 4941 4861 9
a 4941 8221 33
a 4942 10501 7
a 4942 4943 15
a 4942 4861 10
a 4943 4883 11
a 4943 4867 8
a 4943 4942 15
a 4944 4866 18
a 4944 4869 27
a 4944 4868 11
a 4945 12008 4
a 4945 7986 6
a 4945 4956 27
a 4946 4947 33
a 4947 4946 33
a 4947 4875 2
a 4947 4951 8
a 4948 4949 32
a 4949 4951 9
a 4949 4860 9
a 4949 4948 32
a 4950 4951 32
a 4951 4950 32
a 4951 4947 8
a 4951 4949 9
a 4952 13490 7
a 4952 4864 25
a 4953 4864 29
a 4953 10755 10
a 4953 11689 19
a 4954 4841 5
a 4954 10760 24
a 4955 10762 9
a 4955 7981 27
a 4956 4957 10
a 4956 4841 6
a 4956 4945 27
a 4957 4956 10
a 4957 4958 29
a 4957 10492 19
a 4958 4957 29
a 4958 7984 6
a 4958 7989 6
a 4959 4886 5
a 4959 4872 19
a 4959 4871 26
a 4960 4964 16
a 4960 10565 6
a 4961 3122 7
a 4961 10748 4
a 4961 10749 13
a 4962 10747 5
a 4962 2934 24
a 4962 7682 25
a 4962 13366 14
a 4963 10583 4
a 4963 9220 4
a 4963 10584 5
a 4963 4967 14
a 4964 10568 8
a 4964 6641 8
a 4965 10568 3
a 4965 10571 8
a 4965 10570 19
a 4966 7683 17
a 4966 9211 13
a 4966 8429 15
a 4966 2977 12
a 4967 11238 11
a 4967 9218 5
a 4967 10561 6
a 4967 4963 14
a 4968 4984 29
a 4968 10607 8
a 4968 4997 8
a 4969 5062 11
a 4969 5045 9
a 4969 5061 12
a 4969 5036 11
a 4970 4976 10
a 4970 5044 8
a 4970 5044 23
a 4971 10620 1
a 4971 10622 6
a 4971 8430 8
a 4972 3598 11
a 4972 3599 21
a 4973 5012 11
a 4973 5018 10
a 4973 5043 53
a 4973 4989 13
a 4974 5042 7
a 4974 4998 7
a 4974 5000 46
a 4975 5019 7
a 4975 5051 21
a 4975 12156 8
a 4976 4970 10
a 4976 12953 5
a 4976 4995 13
a 4976 5104 8
a 4977 5035 34
a 4977 5037 12
a 4977 5001 19
a 4978 5050 1
a 4978 12124 7
a 4978 148 7
a 4979 5034 36
a 4979 4992 14
a 4979 5049 11
a 4980 4174 10
a 4980 5041 27
a 4980 6662 12
a 4981 5052 9
a 4981 5032 23
a 4981 5006 11
a 4982 4991 17
a 4983 5039 18
a 4983 5030 29
a 4983 5029 24
a 4984 5007 9
a 4984 5019 8
a 4984 4968 29
a 4985 5031 9
a 4985 5103 10
a 4985 4995 10
a 4986 5022 9
a 4986 12710 35
a 4986 5042 7
a 4987 5048 22
a 4987 5004 8
a 4987 4175 12
a 4988 5002 9
a 4988 5013 9
a 4988 5027 44
a 4989 10745 9
a 4989 4996 17
a 4989 4973 13
a 4989 5002 10
a 4990 9942 9
a 4990 4455 34
a 4991 4982 17
a 4991 5024 13
a 4991 5004 25
a 4992 4979 14
a 4992 5038 48
a 4992 5006 10
a 4992 4175 12
a 4993 5055 11
a 4993 4174 12
a 4993 4173 15
a 4993 5024 33
a 4994 5006 24
a 4995 4976 13
a 4995 4985 10
a 4995 5098 32
a 4996 5005 6
a 4996 5046 31
a 4996 4989 17
a 4996 10745 37
a 4997 5028 8
a 4997 4968 8
a 4997 5033 23
a 4998 5040 23
a 4998 4974 7
a 4998 5020 7
a 4999 12709 1
a 4999 12710 2
a 5000 5049 43
a 5000 4974 46
a 5000 5023 9
a 5000 5034 9
a 5001 5045 25
a 5001 10640 9
a 5001 4977 19
a 5002 4988 9
a 5002 4989 10
a 5002 5014 47
a 5003 4374 11
a 5003 4557 38
a 5003 4151 17
a 5004 5017 10
a 5004 4991 25
a 5004 4176 8
a 5004 4987 8
a 5005 4996 6
a 5006 4994 24
a 5006 4981 11
a 5006 4992 10
a 5007 4984 9
a 5007 10729 7
a 5007 10607 28
a 5008 7074 15
a 5008 7075 31
a 5008 5046 13
a 5009 5055 11
a 5009 5054 33
a 5009 4173 29
a 5010 5103 13
a 5010 5037 11
a 5010 5104 17
a 5011 5022 50
a 5011 5032 6
a 5011 12709 6
a 5012 4973 11
a 5012 5049 10
a 5012 5023 48
a 5013 4175 10
a 5013 4988 9
a 5013 5017 38
a 5014 5046 14
a 5014 5027 10
a 5014 5002 47
a 5015 6784 25
a 5015 3597 5
a 5015 5025 1
a 5016 12969 5
a 5016 5026 12
a 5016 4446 8
a 5017 5027 10
a 5017 5004 10
a 5017 5013 38
a 5018 4973 10
a 5018 5047 57
a 5018 12948 18
a 5019 4984 8
a 5019 4975 7
a 5019 5028 21
a 5020 5324 7
a 5020 4998 7
a 5020 11781 4
a 5021 7586 13
a 5021 7585 7
a 5021 5025 37
a 5021 10639 9
a 5022 5011 50
a 5022 5038 9
a 5022 4986 9
a 5023 5043 9
a 5023 5000 9
a 5023 5040 25
a 5023 5012 48
a 5024 4176 24
a 5024 5054 10
a 5024 4991 13
a 5024 4993 33
a 5025 4978 6
a 5025 5021 37
a 5025 5015 1
a 5026 5016 12
a 5026 6995 14
a 5026 4332 28
a 5027 5014 10
a 5027 5017 10
a 5027 4988 44
a 5028 5051 8
a 5028 5019 21
a 5028 4997 8
a 5029 5039 15
a 5029 4983 24
a 5029 10640 9
a 5030 5047 9
a 5030 10640 17
a 5030 4983 29
a 5031 4985 9
a 5031 5035 10
a 5031 5037 32
a 5032 5011 6
a 5032 5038 47
a 5032 4981 23
a 5033 4997 23
a 5034 5042 43
a 5034 4979 36
a 5034 5000 9
a 5035 5031 10
a 5035 5061 7
a 5035 4977 34
a 5036 11781 23
a 5036 4969 11
a 5036 5040 35
a 5037 5010 11
a 5037 5031 32
a 5037 4977 12
a 5038 5022 9
a 5038 5032 47
a 5038 4992 48
a 5039 4983 18
a 5039 5029 15
a 5039 5045 9
a 5040 4998 23
a 5040 5023 25
a 5040 5036 35
a 5041 4980 27
a 5041 9129 22
a 5041 6395 14
a 5042 4986 7
a 5042 4974 7
a 5042 5034 43
a 5043 5047 9
a 5043 5023 9
a 5043 4973 53
a 5044 4970 23
a 5044 4970 8
a 5044 10653 4
a 5045 4969 9
a 5045 5001 25
a 5045 5039 9
a 5046 5014 14
a 5046 5008 13
a 5046 4996 31
a 5047 5043 9
a 5047 5030 9
a 5047 5018 57
a 5048 4987 22
a 5048 4991 11
a 5048 4175 16
a 5049 5000 43
a 5049 4979 11
a 5049 5012 10
a 5050 4978 1
a 5050 5015 6
a 5050 6785 36
a 5051 4975 21
a 5051 5028 8
a 5051 13502 14
a 5052 4981 9
a 5053 13505 15
a 5053 8430 16
a 5054 5024 10
a 5054 5055 29
a 5054 5009 33
a 5055 5009 11
a 5055 4993 11
a 5055 5054 29
a 5056 5079 11
a 5056 5357 18
a 5056 5081 33
a 5056 149 12
a 5057 5079 8
a 5057 5079 58
a 5057 5058 9
a 5058 5059 7
a 5058 5080 30
a 5058 5057 9
a 5059 5058 7
a 5059 5078 47
a 5059 5060 19
a 5060 5061 9
a 5060 5059 19
a 5060 5073 8
a 5061 5035 7
a 5061 4969 12
a 5061 5060 9
a 5062 5063 9
a 5062 4969 11
a 5062 5324 29
a 5063 5065 26
a 5063 5062 9
a 5063 5320 26
a 5064 10641 2
a 5064 5065 4
a 5064 5320 6
a 5065 5064 4
a 5065 5357 9
a 5065 5063 26
a 5066 5095 8
a 5066 10657 2
a 5066 5093 30
a 5067 5082 7
a 5067 5069 23
a 5067 7257 6
a 5068 5095 7
a 5068 5090 7
a 5068 5092 30
a 5069 5083 10
a 5069 5067 23
a 5069 5070 7
a 5069 7256 7
a 5070 5071 7
a 5070 5069 7
a 5070 5082 23
a 5071 5078 10
a 5071 5070 7
a 5071 5080 21
a 5071 5108 16
a 5072 5077 9
a 5072 5075 30
a 5072 5100 6
a 5073 5075 8
a 5073 5076 8
a 5073 5060 8
a 5074 5100 3
a 5074 5078 9
a 5074 5075 40
a 5075 5073 8
a 5075 5074 40
a 5075 5072 30
a 5076 5073 8
a 5076 5077 23
a 5076 5077 26
a 5077 5072 9
a 5077 5076 23
a 5077 5076 26
a 5078 5074 9
a 5078 5071 10
a 5078 5059 47
a 5079 5364 11
a 5079 5057 8
a 5079 5057 58
a 5079 5056 11
a 5080 5082 7
a 5080 5058 30
a 5080 5071 21
a 5081 7257 7
a 5081 10643 23
a 5081 5056 33
a 5082 5067 7
a 5082 5080 7
a 5082 5070 23
a 5083 5092 5
a 5083 5069 10
a 5083 5091 9
a 5084 5085 8
a 5084 5088 8
a 5084 5087 21
a 5084 5102 7
a 5085 5084 8
a 5085 5086 28
a 5085 5086 17
a 5086 5087 7
a 5086 5085 17
a 5086 5085 28
a 5087 5086 7
a 5087 5084 21
a 5087 5089 7
a 5088 5091 9
a 5088 5084 8
a 5088 5089 26
a 5089 5088 26
a 5089 5090 7
a 5089 5087 7
a 5090 5068 7
a 5090 5091 31
a 5090 5089 7
a 5091 5088 9
a 5091 5083 9
a 5091 5090 31
a 5092 5083 5
a 5092 5094 7
a 5092 5068 30
a 5093 5094 7
a 5093 10643 15
a 5093 5066 30
a 5094 5093 7
a 5094 5092 7
a 5094 5095 30
a 5095 5094 30
a 5095 5066 8
a 5095 5068 7
a 5096 5101 14
a 5097 5107 31
a 5097 5098 9
a 5097 5105 7
a 5098 5102 28
a 5098 10655 5
a 5098 5097 9
a 5098 4995 32
a 5099 5108 21
a 5099 10655 2
a 5099 5100 8
a 5100 5074 3
a 5100 5072 6
a 5100 5099 8
a 5101 5102 6
a 5101 5096 14
a 5101 5108 7
a 5102 5101 6
a 5102 5107 10
a 5102 5098 28
a 5102 5084 7
a 5103 5010 13
a 5103 4985 10
a 5103 5104 14
a 5104 4976 8
a 5104 5010 17
a 5104 5103 14
a 5105 5106 30
a 5105 5106 42
a 5105 5097 7
a 5106 5105 42
a 5106 5105 30
a 5106 5107 7
a 5107 5106 7
a 5107 5102 10
a 5107 5097 31
a 5108 5099 21
a 5108 5101 7
a 5108 5071 16
a 5109 4775 2
a 5109 6975 3
a 5110 10540 56
a 5110 4156 17
a 5110 13003 20
a 5111 5113 12
a 5111 5112 59
a 5111 12685 26
a 5112 10539 12
a 5112 5111 59
a 5112 12684 12
a 5113 5111 12
a 5113 10541 11
a 5113 9285 14
a 5114 12684 1
a 5114 8893 2
a 5114 10547 20
a 5115 11724 4
a 5115 10547 17
a 5115 11709 9
a 5116 5118 24
a 5116 5117 6
a 5116 12684 3
a 5117 8434 13
a 5117 12686 10
a 5117 5116 6
a 5118 11709 12
a 5118 5116 24
a 5118 8434 23
a 5119 10541 1
a 5119 8895 11
a 5119 8899 11
a 5120 5121 30
a 5121 5120 30
a 5121 5124 17
a 5121 5123 4
a 5122 4482 27
a 5123 5121 4
a 5124 8890 36
a 5124 5125 11
a 5124 5121 17
a 5125 5124 11
a 5125 8893 14
a 5125 5126 4
a 5126 6648 18
a 5126 5127 32
a 5126 5125 4
a 5127 6600 4
a 5127 6502 9
a 5127 5126 32
a 5128 5129 48
a 5128 2297 10
a 5128 5133 6
a 5129 13152 17
a 5129 5128 48
a 5130 2297 10
a 5131 5132 17
a 5131 13158 36
a 5131 6200 45
a 5132 13158 17
a 5132 5131 17
a 5132 6201 35
a 5133 2300 7
a 5133 13158 32
a 5133 5128 6
a 5134 5135 25
a 5134 2299 19
a 5134 5138 26
a 5135 5134 25
a 5135 5136 60
a 5135 10473 61
a 5136 5135 60
a 5136 10473 15
a 5136 13150 6
a 5137 5138 14
a 5137 2300 16
a 5137 95 29
a 5138 5137 14
a 5138 5140 4
a 5138 5134 26
a 5139 5140 64
a 5140 5138 4
a 5140 5139 64
a 5140 10343 12
a 5141 404 15
a 5141 12683 25
a 5141 12682 34
a 5142 11951 7
a 5142 5143 8
a 5142 9991 5
a 5143 12682 23
a 5143 11600 5
a 5143 5142 8
a 5144 5146 65
a 5144 5145 8
a 5144 10812 32
a 5145 5144 8
a 5146 405 8
a 5146 404 6
a 5146 5144 65
a 5147 6244 28
a 5147 10812 13
a 5147 404 18
a 5148 10825 2
a 5148 5149 14
a 5148 6070 11
a 5149 11707 2
a 5149 5148 14
a 5149 5151 69
a 5150 6234 5
a 5151 6171 13
a 5151 5154 10
a 5151 5149 69
a 5152 5153 44
a 5153 6060 1
a 5153 5152 44
a 5153 9634 11
a 5154 11962 2
a 5154 5151 10
a 5154 13144 10
a 5155 6214 4
a 5155 6211 38
a 5155 6202 7
a 5156 6209 15
a 5156 6211 15
a 5156 6204 17
a 5156 6205 20
a 5157 6221 2
a 5157 9632 8
a 5157 6207 8
a 5158 6227 5
a 5158 6228 7
a 5158 9631 5
a 5159 6220 5
a 5159 6225 8
a 5159 11708 6
a 5160 5161 2
a 5160 12372 3
a 5161 1660 3
a 5161 5160 2
a 5161 5392 5
a 5162 5172 7
a 5162 5392 5
a 5162 5178 7
a 5162 5184 17
a 5163 5173 7
a 5163 5174 7
a 5163 5184 25
a 5164 5171 3
a 5164 5170 43
a 5164 5392 24
a 5165 5180 7
a 5165 5166 3
a 5165 5178 26
a 5166 5165 3
a 5167 5183 5
a 5167 5189 12
a 5167 5185 15
a 5167 5186 7
a 5168 13259 7
a 5168 5174 25
a 5168 5169 9
a 5169 5168 9
a 5170 5173 7
a 5170 5164 43
a 5170 5171 39
a 5171 5172 7
a 5171 5164 3
a 5171 5170 39
a 5172 5162 7
a 5172 5171 7
a 5172 5173 45
a 5173 5170 7
a 5173 5163 7
a 5173 5172 45
a 5174 5163 7
a 5174 5188 7
a 5174 5168 25
a 5175 5185 7
a 5175 5183 21
a 5175 5176 7
a 5176 5177 3
a 5176 5182 20
a 5176 5175 7
a 5177 5176 3
a 5177 5179 6
a 5177 5181 20
a 5178 5179 7
a 5178 5165 26
a 5178 5162 7
a 5179 5178 7
a 5179 5177 6
a 5179 5180 22
a 5180 5181 7
a 5180 5165 7
a 5180 5179 22
a 5181 5182 7
a 5181 5180 7
a 5181 5177 20
a 5182 5176 20
a 5182 5183 7
a 5182 5181 7
a 5183 5175 21
a 5183 5167 5
a 5183 5182 7
a 5184 5185 5
a 5184 5163 25
a 5184 5162 17
a 5185 5190 10
a 5185 5175 7
a 5185 5184 5
a 5185 5167 15
a 5186 5401 18
a 5186 5402 9
a 5186 5167 7
a 5187 13259 1
a 5187 5189 7
a 5187 5188 25
a 5188 5174 7
a 5188 5190 7
a 5188 5187 25
a 5189 5187 7
a 5189 5190 25
a 5189 5167 12
a 5190 5188 7
a 5190 5185 10
a 5190 5189 25
a 5191 11583 4
a 5191 4405 17
a 5192 5200 6
a 5192 5201 16
a 5193 5191 5
a 5194 5193 20
a 5194 5195 4
a 5195 5196 20
a 5195 5197 4
a 5196 5193 4
a 5197 5199 4
a 5197 5198 20
a 5198 5196 4
a 5199 5206 5
a 5199 5207 19
a 5200 5198 5
a 5201 5192 17
a 5201 5192 16
a 5202 5200 7
a 5202 5203 17
a 5203 5202 17
a 5203 5201 4
a 5204 5202 4
a 5204 5205 16
a 5205 5203 5
a 5206 5204 4
a 5206 5207 15
a 5207 5205 4
a 5208 5209 49
a 5208 5214 4
a 5208 5212 6
a 5209 3312 5
a 5209 5208 49
a 5209 3311 28
a 5210 5230 32
a 5211 10207 9
a 5211 11366 8
a 5211 5212 34
a 5212 5208 6
a 5212 5211 34
a 5212 5230 9
a 5213 5233 14
a 5214 4142 6
a 5214 5208 4
a 5214 10207 35
a 5215 3312 5
a 5215 12377 2
a 5215 4147 30
a 5216 5218 17
a 5217 5218 17
a 5218 10206 9
a 5218 5217 17
a 5218 5216 17
a 5219 5220 7
a 5219 5222 8
a 5219 8629 47
a 5219 10205 31
a 5220 5219 7
a 5220 10205 27
a 5220 8629 35
a 5221 10206 17
a 5222 10206 6
a 5222 5219 8
a 5222 5223 32
a 5223 5222 32
a 5224 5228 14
a 5225 5228 6
a 5226 5229 11
a 5227 5229 6
a 5228 5225 6
a 5228 5224 14
a 5228 5229 9
a 5229 5227 6
a 5229 5226 11
a 5229 5230 9
a 5229 5228 9
a 5230 5229 9
a 5230 5212 9
a 5230 5210 32
a 5231 7264 24
a 5232 8645 10
a 5232 11235 24
a 5232 11366 21
a 5233 5213 14
a 5233 8919 11
a 5233 5236 8
a 5233 4142 44
a 5234 5239 16
a 5234 5238 6
a 5234 5240 31
a 5235 5236 19
a 5236 5238 6
a 5236 5233 8
a 5236 5235 19
a 5236 8640 24
a 5237 5238 15
a 5238 12259 16
a 5238 5237 15
a 5238 5234 6
a 5238 5236 6
a 5239 5234 16
a 5239 5296 6
a 5239 8640 20
a 5240 5234 31
a 5241 9054 8
a 5241 9801 15
a 5241 9793 9
a 5242 5243 6
a 5242 8666 4
a 5243 7440 3
a 5244 8994 34
a 5244 205 23
a 5245 29 32
a 5245 204 12
a 5245 5246 19
a 5246 5247 12
a 5246 11802 5
a 5246 5245 19
a 5247 5246 12
a 5247 204 20
a 5247 13112 97
a 5248 5264 8
a 5248 7494 40
a 5248 5258 7
a 5248 13321 10
a 5249 5266 36
a 5249 5267 9
a 5249 5264 7
a 5250 5251 35
a 5250 5267 13
a 5250 5253 39
a 5251 5275 35
a 5251 5250 35
a 5251 5253 17
a 5252 5254 7
a 5252 5275 19
a 5252 5272 23
a 5253 5270 7
a 5253 5251 17
a 5253 5250 39
a 5254 5270 10
a 5254 5252 7
a 5254 5268 21
a 5255 5260 7
a 5255 5256 28
a 5255 5276 27
a 5256 5257 7
a 5256 5271 10
a 5256 5255 28
a 5257 7494 7
a 5257 5256 7
a 5257 5259 58
a 5257 5276 29
a 5258 5276 9
a 5258 5260 31
a 5258 5248 7
a 5259 7494 58
a 5259 5481 20
a 5259 5257 58
a 5260 5255 7
a 5260 5265 7
a 5260 5272 8
a 5260 5258 31
a 5261 5618 9
a 5261 5728 5
a 5261 5562 17
a 5262 5263 18
a 5262 5475 21
a 5262 10189 28
a 5263 5262 18
a 5263 5480 7
a 5263 5500 20
a 5263 13284 22
a 5264 5265 37
a 5264 5249 7
a 5264 5248 8
a 5265 5260 7
a 5265 5266 7
a 5265 5264 37
a 5266 5265 7
a 5266 5249 36
a 5266 5268 7
a 5267 5250 13
a 5267 5249 9
a 5267 5269 25
a 5268 5269 8
a 5268 5266 7
a 5268 5254 21
a 5269 5268 8
a 5269 5267 25
a 5269 5270 29
a 5270 5253 7
a 5270 5254 10
a 5270 5269 29
a 5271 5256 10
a 5271 7493 24
a 5271 5281 16
a 5272 5260 8
a 5272 5273 5
a 5272 7493 22
a 5272 5252 23
a 5273 11651 2
a 5273 5272 5
a 5273 5466 31
a 5273 7492 46
a 5274 7492 28
a 5274 7639 3
a 5274 5275 6
a 5275 5274 6
a 5275 5252 19
a 5275 5251 35
a 5276 5258 9
a 5276 5257 29
a 5276 5255 27
a 5277 5485 7
a 5277 5278 6
a 5277 5526 28
a 5278 5481 6
a 5278 10477 1
a 5278 5277 6
a 5279 5528 7
a 5279 5481 26
a 5279 12673 2
a 5280 5281 7
a 5280 5451 34
a 5280 5528 8
a 5281 5280 7
a 5281 5604 30
a 5281 5271 16
a 5282 5285 7
a 5282 5286 46
a 5282 5289 11
a 5283 5284 8
a 5284 5283 8
a 5284 5303 52
a 5284 5285 63
a 5285 5282 7
a 5285 5284 63
a 5285 5301 8
a 5286 5282 46
a 5287 5289 57
a 5288 12577 1
a 5288 8524 31
a 5288 8527 16
a 5289 5295 11
a 5289 5287 57
a 5289 5282 11
a 5290 5293 8
a 5290 5295 8
a 5290 11417 69
a 5291 5294 20
a 5291 8524 25
a 5291 11622 27
a 5292 11549 6
a 5293 5290 8
a 5293 11777 48
a 5293 5300 27
a 5294 5291 20
a 5294 8526 43
a 5294 8538 8
a 5294 11549 8
a 5295 5289 11
a 5295 5290 8
a 5295 9062 51
a 5296 5297 15
a 5296 5239 6
a 5296 4473 11
a 5297 5296 15
a 5298 5299 82
a 5298 9061 13
a 5298 5301 10
a 5299 10333 4
a 5299 10334 1
a 5299 5298 82
a 5300 5293 27
a 5300 13199 19
a 5300 10334 4
a 5301 5285 8
a 5301 5303 20
a 5301 5298 10
a 5302 3360 39
a 5302 3359 18
a 5302 5303 8
a 5303 5302 8
a 5303 5301 20
a 5303 5284 52
a 5304 5368 4
a 5304 5313 14
a 5304 13215 5
a 5305 5312 13
a 5306 5363 14
a 5306 5360 27
a 5306 5310 5
a 5306 5356 31
a 5307 5336 25
a 5307 5330 13
a 5307 5340 10
a 5308 9962 6
a 5308 9332 3
a 5308 5372 21
a 5309 10646 2
a 5309 5376 29
a 5309 5332 24
a 5310 5370 27
a 5310 5368 14
a 5310 5313 4
a 5310 5306 5
a 5311 5317 7
a 5311 5354 21
a 5312 10630 2
a 5312 5333 17
a 5312 5305 13
a 5313 5316 5
a 5313 5310 4
a 5313 5304 14
a 5313 5375 27
a 5314 5322 4
a 5315 8510 6
a 5316 5313 5
a 5316 13215 13
a 5316 3797 27
a 5316 8658 15
a 5317 5319 21
a 5317 12132 11
a 5318 3608 2
a 5318 3600 27
a 5318 5333 17
a 5319 5354 11
a 5319 5322 4
a 5319 5317 21
a 5320 5324 5
a 5320 5063 26
a 5320 5064 6
a 5321 3600 13
a 5321 11241 18
a 5321 5331 28
a 5322 5319 4
a 5322 5314 4
a 5322 12132 17
a 5323 7343 49
a 5323 3715 12
a 5323 7054 16
a 5324 5320 5
a 5324 5020 7
a 5324 5062 29
a 5325 5330 9
a 5326 5332 21
a 5326 2763 12
a 5327 11241 13
a 5327 5335 12
a 5327 9332 20
a 5328 8861 8
a 5328 5338 6
a 5328 8863 17
a 5329 12570 2
a 5329 5339 3
a 5329 1659 4
a 5330 5307 13
a 5330 5325 9
a 5330 5371 7
a 5331 5333 2
a 5331 9896 12
a 5331 5321 28
a 5332 6885 14
a 5332 5326 21
a 5332 5309 24
a 5333 5331 2
a 5333 5318 17
a 5333 5312 17
a 5334 3602 12
a 5334 11419 18
a 5334 8775 26
a 5335 8772 3
a 5335 3546 14
a 5335 5327 12
a 5336 5359 6
a 5336 5307 25
a 5337 3606 6
a 5337 8775 21
a 5337 2762 40
a 5338 8656 30
a 5338 5328 6
a 5338 5349 12
a 5339 5367 4
a 5339 5329 3
a 5340 5345 20
a 5340 5374 6
a 5341 12173 5
a 5341 10665 27
a 5341 9043 28
a 5342 6906 18
a 5343 11667 16
a 5343 10629 11
a 5343 10630 44
a 5344 5347 12
a 5345 5340 20
a 5345 5336 6
a 5346 7236 5
a 5347 5344 12
a 5347 10645 8
a 5347 5376 13
a 5348 9896 13
a 5348 8621 20
a 5348 9962 17
a 5349 5338 12
a 5350 3601 29
a 5350 10644 18
a 5351 5345 17
a 5351 10469 14
a 5352 5363 4
a 5353 3609 8
a 5353 3612 11
a 5353 11758 13
a 5354 5319 11
a 5354 5311 21
a 5354 12863 4
a 5355 5369 7
a 5355 5307 6
a 5356 5360 4
a 5356 5306 31
a 5356 3852 6
a 5357 5361 15
a 5357 5056 18
a 5357 5065 9
a 5357 10642 24
a 5358 3609 2
a 5358 10631 27
a 5358 12204 17
a 5359 5365 9
a 5359 5362 37
a 5360 5306 27
a 5360 5356 4
a 5360 5370 5
a 5361 5357 15
a 5362 5339 6
a 5362 5365 53
a 5363 5306 14
a 5363 5352 4
a 5363 5368 5
a 5364 5079 11
a 5365 5359 9
a 5365 5369 9
a 5365 5362 53
a 5366 5371 6
a 5367 5311 8
a 5367 5369 55
a 5368 5310 14
a 5368 5363 5
a 5368 5304 4
a 5369 5365 9
a 5369 5355 7
a 5369 5367 55
a 5370 5310 27
a 5370 5360 5
a 5370 5375 4
a 5371 5366 6
a 5371 8510 25
a 5371 5330 7
a 5372 8772 16
a 5372 5308 21
a 5372 8781 58
a 5373 4791 17
a 5373 13535 2
a 5374 8510 11
a 5374 10464 22
a 5374 5351 19
a 5375 5313 27
a 5375 3797 5
a 5375 5370 4
a 5376 8775 4
a 5376 5309 29
a 5376 5347 13
a 5377 5390 14
a 5377 5393 30
a 5377 7710 8
a 5378 7710 8
a 5378 7709 9
a 5378 5379 66
a 5378 5388 27
a 5379 5380 9
a 5379 5381 8
a 5379 5378 66
a 5380 5379 9
a 5380 7709 66
a 5380 5381 25
a 5381 5379 8
a 5381 5389 8
a 5381 7710 66
a 5381 5380 25
a 5382 7710 18
a 5383 10249 3
a 5384 5386 8
a 5384 5387 19
a 5384 10249 30
a 5384 7709 8
a 5385 10250 4
a 5386 5384 8
a 5386 9483 20
a 5386 10250 30
a 5387 9483 8
a 5387 5384 19
a 5387 5388 9
a 5388 7709 19
a 5388 5387 9
a 5388 5378 27
a 5389 5381 8
a 5389 5393 36
a 5389 7193 44
a 5390 5377 14
a 5391 5392 15
a 5392 5391 15
a 5392 5162 5
a 5392 5164 24
a 5392 5161 5
a 5393 7193 8
a 5393 5377 30
a 5393 5389 36
a 5394 5395 37
a 5394 7359 4
a 5394 539 17
a 5395 5394 37
a 5396 9717 46
a 5396 5397 12
a 5396 11272 8
a 5397 7105 7
a 5397 5396 12
a 5397 8145 6
a 5398 5664 10
a 5398 12266 15
a 5398 7008 4
a 5399 5400 11
a 5399 5400 30
a 5399 8253 8
a 5400 10474 4
a 5400 5402 8
a 5400 5399 11
a 5400 5399 30
a 5401 5399 6
a 5401 5402 16
a 5402 5400 8
a 5402 5186 9
a 5402 5401 16
a 5403 5404 17
a 5404 10474 8
a 5404 5638 5
a 5404 5405 18
a 5404 5403 17
a 5405 5404 18
a 5405 10474 31
a 5405 5638 23
a 5406 8253 28
a 5406 7802 31
a 5407 407 3
a 5407 5423 16
a 5407 12267 9
a 5408 5407 44
a 5408 5406 10
a 5409 7007 16
a 5409 7007 31
a 5409 7906 9
a 5410 12886 10
a 5410 5490 7
a 5410 5421 3
a 5411 12885 3
a 5411 5416 13
a 5411 5419 34
a 5412 5418 28
a 5412 5413 21
a 5412 9785 15
a 5413 5417 18
a 5413 7906 10
a 5413 5412 21
a 5414 9812 5
a 5414 5417 24
a 5415 5422 10
a 5415 10358 3
a 5415 409 17
a 5416 5411 13
a 5416 5418 29
a 5416 5414 12
a 5417 5418 13
a 5417 5413 18
a 5418 5412 28
a 5418 5419 13
a 5418 5417 13
a 5418 5416 29
a 5419 9813 5
a 5419 5418 13
a 5419 9785 20
a 5419 5411 34
a 5420 5421 12
a 5421 5420 12
a 5421 5410 3
a 5421 409 5
a 5422 5415 10
a 5423 5427 13
a 5423 5407 16
a 5424 10470 28
a 5424 406 46
a 5425 11222 14
a 5425 7567 18
a 5425 406 4
a 5426 10470 58
a 5427 10372 6
a 5427 10372 33
a 5428 408 84
a 5428 10377 35
a 5428 11282 21
a 5428 11592 8
a 5429 5740 20
a 5429 5740 37
a 5429 7500 9
a 5430 5611 7
a 5430 5627 14
a 5430 10370 7
a 5431 5732 42
a 5431 5531 29
a 5431 5613 11
a 5432 5614 14
a 5432 5479 5
a 5432 5631 6
a 5433 5628 4
a 5433 5668 9
a 5433 5608 42
a 5434 5703 3
a 5434 5500 43
a 5434 5617 8
a 5435 5694 12
a 5435 5676 3
a 5435 5468 16
a 5436 5600 46
a 5436 5653 5
a 5436 5595 4
a 5437 5593 7
a 5438 5583 5
a 5438 5512 6
a 5438 5687 12
a 5439 5726 14
a 5440 5572 7
a 5440 5486 25
a 5440 10190 2
a 5441 11135 8
a 5441 5448 21
a 5442 9728 9
a 5442 10194 2
a 5442 5601 7
a 5443 5628 41
a 5443 5787 1
a 5443 5608 3
a 5444 5671 9
a 5444 6248 10
a 5444 5514 31
a 5445 5734 93
a 5445 5734 12
a 5445 5640 10
a 5446 5557 15
a 5446 5704 4
a 5446 5611 40
a 5447 5567 8
a 5447 5613 11
a 5447 5741 25
a 5448 5537 4
a 5448 12646 6
a 5449 5739 16
a 5449 5567 10
a 5449 5708 20
a 5450 5727 21
a 5450 5615 8
a 5450 6247 12
a 5451 5528 27
a 5451 5280 34
a 5451 5721 52
a 5452 5626 19
a 5453 7492 11
a 5453 5558 13
a 5453 11215 1
a 5453 5728 32
a 5454 5665 9
a 5454 5562 10
a 5454 6887 6
a 5455 5586 9
a 5455 5508 9
a 5455 5553 23
a 5456 5670 9
a 5456 11466 26
a 5456 5724 31
a 5456 5615 9
a 5457 5584 6
a 5457 5500 5
a 5457 5634 10
a 5457 9727 27
a 5458 5682 10
a 5458 13284 14
a 5458 5602 57
a 5459 5636 10
a 5459 5683 4
a 5459 5671 5
a 5460 5651 6
a 5461 5745 6
a 5461 5723 7
a 5461 5550 6
a 5461 5660 6
a 5462 5621 7
a 5462 5530 2
a 5462 5726 34
a 5463 5606 8
a 5463 5625 7
a 5463 5475 6
a 5463 9728 20
a 5464 5658 12
a 5464 5679 34
a 5464 12406 1
a 5465 6887 10
a 5466 5568 8
a 5466 7493 9
a 5466 5273 31
a 5467 5825 6
a 5467 10426 104
a 5467 10412 46
a 5467 5669 9
a 5468 5644 9
a 5468 5552 13
a 5468 5435 16
a 5469 5663 10
a 5469 5610 8
a 5469 5646 30
a 5470 5689 16
a 5470 5518 7
a 5470 5525 41
a 5471 13586 1
a 5472 5558 5
a 5472 5676 8
a 5472 5643 16
a 5473 5597 31
a 5473 5398 5
a 5474 5681 8
a 5474 5577 34
a 5474 10414 21
a 5475 11634 28
a 5475 5262 21
a 5475 5463 6
a 5476 5536 10
a 5476 5713 8
a 5477 5615 15
a 5477 5680 25
a 5477 6886 54
a 5478 5642 7
a 5478 5653 8
a 5478 5711 37
a 5479 5698 8
a 5479 5494 5
a 5479 5432 5
a 5480 5500 5
a 5480 5555 43
a 5480 5580 16
a 5480 5263 7
a 5481 5278 6
a 5481 5259 20
a 5481 5279 26
a 5482 6197 9
a 5482 6194 22
a 5482 5569 19
a 5483 5523 6
a 5483 5654 7
a 5483 5549 20
a 5484 5636 9
a 5484 5709 9
a 5484 5529 26
a 5485 5277 7
a 5485 10478 13
a 5485 5526 32
a 5486 5440 25
a 5486 5718 8
a 5486 8583 9
a 5487 5695 9
a 5488 10416 19
a 5488 5502 15
a 5488 5690 12
a 5489 5637 8
a 5489 5600 8
a 5489 5653 47
a 5490 10512 8
a 5490 410 5
a 5490 5410 7
a 5491 7501 8
a 5491 5532 32
a 5491 5626 24
a 5492 5544 38
a 5492 5732 64
a 5492 12417 5
a 5492 5708 7
a 5493 5678 3
a 5494 5642 37
a 5494 5479 5
a 5494 5711 5
a 5495 5688 9
a 5495 409 5
a 5496 5610 10
a 5496 5663 8
a 5496 7468 21
a 5497 5664 9
a 5497 5498 9
a 5497 5510 13
a 5498 5661 16
a 5498 5497 9
a 5498 5630 8
a 5499 5733 5
a 5499 9727 5
a 5499 5574 11
a 5500 5457 5
a 5500 5480 5
a 5500 5434 43
a 5500 5263 20
a 5501 5535 28
a 5501 5535 39
a 5501 5507 8
a 5502 10188 6
a 5502 5488 15
a 5502 8588 21
a 5503 5592 6
a 5503 5648 13
a 5503 10169 13
a 5504 10462 40
a 5504 5664 6
a 5504 5566 6
a 5505 5642 8
a 5505 5631 13
a 5505 5538 5
a 5506 5748 10
a 5506 8584 20
a 5506 5652 8
a 5507 5501 8
a 5507 10376 6
a 5507 10512 13
a 5508 5455 9
a 5508 5656 9
a 5508 5647 20
a 5509 5701 9
a 5509 5658 26
a 5509 11784 12
a 5510 5497 13
a 5511 5708 20
a 5512 5748 8
a 5512 5438 6
a 5512 5536 32
a 5513 5683 6
a 5513 5587 11
a 5514 5649 26
a 5514 5636 34
a 5514 5735 9
a 5514 5444 31
a 5515 5685 19
a 5515 5749 47
a 5515 5733 3
a 5515 5705 5
a 5516 5752 33
a 5516 5752 20
a 5516 5728 14
a 5516 5710 34
a 5517 5582 10
a 5517 5701 41
a 5517 2439 23
a 5518 5470 7
a 5519 5567 13
a 5520 5597 67
a 5520 5688 11
a 5520 5655 12
a 5521 3310 59
a 5522 12890 2
a 5522 5744 8
a 5522 5589 31
a 5522 5714 11
a 5523 5629 8
a 5523 5483 6
a 5523 5545 17
a 5524 5537 13
a 5524 5543 28
a 5524 5543 33
a 5525 5470 41
a 5525 11872 3
a 5525 8746 6
a 5526 5645 12
a 5526 5277 28
a 5526 5485 32
a 5527 5697 8
a 5527 5672 11
a 5527 5725 8
a 5527 13260 29
a 5528 5279 7
a 5528 5451 27
a 5528 5280 8
a 5529 5683 26
a 5529 5484 26
a 5529 5691 15
a 5530 5462 2
a 5530 5674 8
a 5530 5698 20
a 5531 5431 29
a 5531 5707 8
a 5531 5627 11
a 5531 5561 26
a 5532 5626 8
a 5532 5559 8
a 5532 5641 19
a 5532 5491 32
a 5533 5702 8
a 5534 5681 7
a 5534 5700 7
a 5535 5655 7
a 5535 5501 28
a 5535 5501 39
a 5536 5603 7
a 5537 5524 13
a 5537 10414 6
a 5537 5448 4
a 5537 5753 18
a 5538 5705 22
a 5538 10170 1
a 5538 5505 5
a 5539 5686 31
a 5539 5743 14
a 5539 5607 40
a 5540 12346 1
a 5540 5595 10
a 5540 5621 5
a 5541 13141 1
a 5541 406 22
a 5542 5742 8
a 5542 5714 11
a 5542 5692 49
a 5543 5524 33
a 5543 5524 28
a 5543 5712 9
a 5544 5492 38
a 5545 5606 5
a 5545 5523 17
a 5545 5695 21
a 5545 5549 5
a 5546 5866 6
a 5546 5693 4
a 5546 5570 36
a 5547 10199 7
a 5547 5706 12
a 5547 5699 54
a 5547 5699 22
a 5548 5603 6
a 5549 5483 20
a 5549 5545 5
a 5549 5562 6
a 5550 5461 6
a 5550 7302 7
a 5550 5592 11
a 5551 5698 46
a 5551 7536 3
a 5551 5747 3
a 5552 5644 4
a 5552 6887 3
a 5552 5468 13
a 5553 5647 9
a 5553 5455 23
a 5553 5586 35
a 5554 5670 23
a 5554 5702 8
a 5554 5724 17
a 5555 5703 5
a 5555 5746 8
a 5555 5480 43
a 5556 5697 23
a 5557 5627 12
a 5557 5446 15
a 5557 5611 17
a 5558 5472 5
a 5558 5453 13
a 5558 5694 4
a 5558 5618 13
a 5559 5532 8
a 5559 9461 4
a 5559 5696 19
a 5559 8793 16
a 5560 5733 18
a 5560 5574 5
a 5560 5685 3
a 5561 5704 2
a 5561 5689 9
a 5561 5531 26
a 5562 5454 10
a 5562 5549 6
a 5562 5261 17
a 5563 5732 7
a 5563 5613 22
a 5563 5741 11
a 5564 5737 15
a 5564 5700 7
a 5565 5722 6
a 5565 5573 10
a 5565 10430 14
a 5566 5504 6
a 5566 2439 8
a 5566 5716 9
a 5567 5447 8
a 5567 5449 10
a 5567 5519 13
a 5568 5604 17
a 5568 5604 25
a 5568 5466 8
a 5569 5482 19
a 5569 6886 10
a 5569 5513 45
a 5570 11269 38
a 5570 5867 5
a 5570 10454 11
a 5570 5546 36
a 5571 5720 20
a 5571 5589 13
a 5571 5640 26
a 5572 5440 7
a 5572 5755 8
a 5572 5718 28
a 5573 5565 10
a 5573 5743 22
a 5573 5712 16
a 5574 5560 5
a 5574 10176 16
a 5574 5499 11
a 5575 7536 1
a 5575 12185 1
a 5576 5724 8
a 5577 5700 15
a 5577 5737 8
a 5577 5474 34
a 5578 5725 8
a 5579 5719 43
a 5579 5787 1
a 5579 5747 3
a 5580 13284 1
a 5580 10174 25
a 5580 5480 16
a 5581 5704 31
a 5581 6325 2
a 5581 6308 4
a 5582 5701 29
a 5582 5517 10
a 5582 5658 11
a 5582 13583 10
a 5583 5438 5
a 5584 5733 48
a 5584 5457 6
a 5584 5749 5
a 5585 5724 10
a 5585 5677 9
a 5585 10362 14
a 5586 5730 10
a 5586 5455 9
a 5586 5553 35
a 5587 5569 38
a 5587 11465 9
a 5588 5756 2
a 5589 13580 11
a 5589 5522 31
a 5589 5571 13
a 5590 5747 45
a 5590 5674 19
a 5590 5698 8
a 5590 11480 4
a 5591 6250 4
a 5591 5598 9
a 5591 10361 46
a 5592 5503 6
a 5592 5745 13
a 5592 5550 11
a 5593 5564 20
a 5593 5437 7
a 5594 10478 3
a 5595 5436 4
a 5595 10166 35
a 5595 5540 10
a 5596 9461 8
a 5597 5520 67
a 5597 12417 12
a 5597 5473 31
a 5598 5649 10
a 5598 5727 19
a 5598 5591 9
a 5599 10411 3
a 5599 10416 23
a 5599 5619 9
a 5600 5436 46
a 5600 5489 8
a 5600 5617 9
a 5601 5442 7
a 5601 5606 23
a 5601 5695 10
a 5602 5458 57
a 5602 5751 10
a 5602 10172 56
a 5603 5548 6
a 5603 5748 26
a 5603 5667 11
a 5604 5568 17
a 5604 5568 25
a 5604 5281 30
a 5604 5751 9
a 5605 11201 26
a 5605 10480 22
a 5605 12406 8
a 5606 5463 8
a 5606 5545 5
a 5606 5601 23
a 5606 5629 13
a 5607 5539 40
a 5607 5686 11
a 5607 5753 10
a 5608 5433 42
a 5608 5443 3
a 5608 5783 8
a 5609 5630 15
a 5610 5496 10
a 5610 7468 3
a 5610 5469 8
a 5611 5430 7
a 5611 5446 40
a 5611 5557 17
a 5612 5737 37
a 5613 5447 11
a 5613 5707 25
a 5613 5563 22
a 5613 5431 11
a 5614 5631 24
a 5614 13182 9
a 5615 5477 15
a 5615 5456 9
a 5615 5450 8
a 5616 8218 5
a 5616 5622 15
a 5616 9478 18
a 5617 5600 9
a 5617 5434 8
a 5617 10166 10
a 5618 5643 8
a 5618 5261 9
a 5618 5558 13
a 5619 5656 3
a 5619 5599 9
a 5619 5730 38
a 5620 5675 8
a 5621 5711 4
a 5621 5462 7
a 5621 5540 5
a 5622 5635 17
a 5622 5616 15
a 5622 5679 8
a 5623 11635 5
a 5623 5665 14
a 5623 5676 4
a 5624 10480 14
a 5625 5755 7
a 5625 5629 13
a 5625 5463 7
a 5626 5633 8
a 5626 5532 8
a 5626 5452 19
a 5626 5491 24
a 5627 5557 12
a 5627 5430 14
a 5627 5531 11
a 5628 5443 41
a 5628 5719 8
a 5628 5433 4
a 5629 5625 13
a 5629 5523 8
a 5629 5606 13
a 5630 5498 8
a 5630 11992 36
a 5630 5609 15
a 5631 5505 13
a 5631 5432 6
a 5631 5614 24
a 5632 6247 9
a 5632 5671 32
a 5632 5680 11
a 5633 8218 8
a 5633 5626 8
a 5633 11851 21
a 5633 7501 24
a 5634 5457 10
a 5635 5622 17
a 5635 9478 30
a 5635 5651 9
a 5636 5459 10
a 5636 5484 9
a 5636 5514 34
a 5637 5705 47
a 5637 5489 8
a 5637 5749 8
a 5638 5186 20
a 5638 5404 5
a 5638 5734 22
a 5638 5405 23
a 5639 5660 20
a 5639 10451 1
a 5639 12185 11
a 5640 5720 10
a 5640 5445 10
a 5640 5571 26
a 5640 5692 11
a 5641 5532 19
a 5642 5494 37
a 5642 5505 8
a 5642 5478 7
a 5643 5618 8
a 5643 5665 8
a 5643 5472 16
a 5644 5468 9
a 5644 11635 7
a 5644 5552 4
a 5645 5526 12
a 5646 5469 30
a 5646 7469 24
a 5646 5690 14
a 5647 5553 9
a 5647 5508 20
a 5647 5656 24
a 5648 5745 6
a 5648 5675 6
a 5648 5503 13
a 5648 12193 7
a 5649 5598 10
a 5649 9818 21
a 5649 5514 26
a 5650 5751 3
a 5650 8583 7
a 5650 10177 14
a 5651 5729 36
a 5651 5635 9
a 5651 5460 6
a 5652 4568 10
a 5652 10181 2
a 5652 5743 8
a 5652 5506 8
a 5653 5478 8
a 5653 5705 5
a 5653 5436 5
a 5653 5489 47
a 5654 5755 26
a 5654 5483 7
a 5654 5718 8
a 5655 13120 2
a 5655 5535 7
a 5655 11898 10
a 5655 5520 12
a 5656 5508 9
a 5656 5619 3
a 5656 5647 24
a 5657 10191 10
a 5657 9728 6
a 5657 5687 12
a 5658 5582 11
a 5658 5464 12
a 5658 5509 26
a 5659 5534 28
a 5659 5593 8
a 5660 10283 4
a 5660 5723 5
a 5660 5461 6
a 5660 5639 20
a 5661 5498 16
a 5662 8182 28
a 5663 5469 10
a 5663 12024 11
a 5663 5496 8
a 5664 5497 9
a 5664 5398 10
a 5664 5504 6
a 5665 5643 8
a 5665 5454 9
a 5665 5623 14
a 5666 11871 8
a 5666 5673 6
a 5666 9107 23
a 5667 9848 8
a 5667 5441 18
a 5667 5686 5
a 5667 5603 11
a 5668 5740 16
a 5668 7500 5
a 5668 5433 9
a 5669 5467 9
a 5669 5659 4
a 5670 5456 9
a 5670 5554 23
a 5670 13151 5
a 5671 5459 5
a 5671 5444 9
a 5671 5632 32
a 5672 5527 11
a 5673 5866 9
a 5673 5715 11
a 5673 5666 6
a 5674 5590 19
a 5674 5530 8
a 5674 13586 5
a 5675 5648 6
a 5675 5620 8
a 5675 10169 6
a 5675 10167 4
a 5676 5472 8
a 5676 5435 3
a 5676 5623 4
a 5677 5702 14
a 5677 6251 2
a 5677 5585 9
a 5678 10283 21
a 5678 10283 32
a 5678 5493 3
a 5679 13584 24
a 5679 5464 34
a 5679 5622 8
a 5680 5477 25
a 5680 6886 15
a 5680 5632 11
a 5681 5474 8
a 5681 5669 29
a 5682 5458 10
a 5682 11359 11
a 5682 10171 15
a 5683 5459 4
a 5683 5513 6
a 5683 5529 26
a 5684 11135 3
a 5685 5515 19
a 5685 5560 3
a 5685 10170 4
a 5686 5539 31
a 5686 5607 11
a 5686 5667 5
a 5687 5476 5
a 5687 5438 12
a 5687 5657 12
a 5688 5473 8
a 5688 5520 11
a 5689 5470 16
a 5689 8746 10
a 5689 5561 9
a 5690 11316 5
a 5690 5488 12
a 5690 5646 14
a 5691 5529 15
a 5692 5714 37
a 5692 5640 11
a 5692 5542 49
a 5693 5546 4
a 5694 5435 12
a 5694 5558 4
a 5694 13323 11
a 5695 5487 9
a 5695 5545 21
a 5695 5601 10
a 5696 5559 19
a 5697 8490 8
a 5697 5527 8
a 5697 5556 23
a 5697 8491 25
a 5698 5479 8
a 5698 5590 8
a 5698 5551 46
a 5698 5530 20
a 5699 10200 5
a 5699 5547 22
a 5699 5547 54
a 5700 5534 7
a 5700 5577 15
a 5701 5509 9
a 5701 5582 29
a 5701 5517 41
a 5702 5533 8
a 5702 5677 14
a 5702 5554 8
a 5703 5434 3
a 5703 5555 5
a 5703 5736 18
a 5704 5561 2
a 5704 10371 16
a 5704 5581 31
a 5704 5446 4
a 5705 5637 47
a 5705 5538 22
a 5705 5515 5
a 5705 5653 5
a 5706 5547 12
a 5706 7489 26
a 5706 10203 12
a 5706 10198 36
a 5707 13147 3
a 5707 13149 1
a 5707 5613 25
a 5707 5531 8
a 5708 5511 20
a 5708 5449 20
a 5708 5741 15
a 5708 5492 7
a 5709 5484 9
a 5709 13140 4
a 5709 5735 20
a 5710 5752 12
a 5710 5516 34
a 5710 8583 12
a 5711 5494 5
a 5711 5621 4
a 5711 5478 37
a 5712 5543 9
a 5712 5573 16
a 5712 5753 16
a 5713 5476 8
a 5714 5692 37
a 5714 5522 11
a 5714 5542 11
a 5715 12175 30
a 5715 5673 11
a 5715 11188 4
a 5716 10460 17
a 5716 5566 9
a 5716 12889 4
a 5717 5812 3
a 5717 5750 39
a 5717 4237 19
a 5718 5572 28
a 5718 5654 8
a 5718 5486 8
a 5719 11480 4
a 5719 5628 8
a 5719 5579 43
a 5720 5744 7
a 5720 5640 10
a 5720 5571 20
a 5721 10174 17
a 5721 5746 8
a 5721 5451 52
a 5722 5565 6
a 5723 5660 5
a 5723 5461 7
a 5723 11133 9
a 5724 5585 10
a 5724 5554 17
a 5724 5456 31
a 5724 5576 8
a 5725 5756 8
a 5725 5578 8
a 5725 5527 8
a 5725 10480 36
a 5726 5439 14
a 5726 5462 34
a 5726 10166 50
a 5727 5450 21
a 5727 5598 19
a 5727 6248 22
a 5728 5261 5
a 5728 11651 6
a 5728 5516 14
a 5728 5453 32
a 5729 5651 36
a 5729 10516 17
a 5729 5731 4
a 5730 5586 10
a 5730 5738 5
a 5730 5619 38
a 5731 7501 1
a 5731 9478 9
a 5731 5729 4
a 5732 5563 7
a 5732 5492 64
a 5732 5431 42
a 5732 5786 16
a 5733 5584 48
a 5733 5560 18
a 5733 5499 5
a 5733 5515 3
a 5734 5445 93
a 5734 5445 12
a 5734 5638 22
a 5735 5514 9
a 5735 11088 11
a 5735 5709 20
a 5736 5703 18
a 5736 13283 3
a 5736 11773 8
a 5737 5564 15
a 5737 5612 37
a 5737 5577 8
a 5738 5730 5
a 5739 5449 16
a 5740 5429 20
a 5740 5429 37
a 5740 5668 16
a 5741 5447 25
a 5741 5708 15
a 5741 5563 11
a 5742 5542 8
a 5743 5652 8
a 5743 5573 22
a 5743 5539 14
a 5744 5720 7
a 5744 13580 9
a 5744 5522 8
a 5745 5461 6
a 5745 5648 6
a 5745 5592 13
a 5745 12192 7
a 5746 10175 23
a 5746 5555 8
a 5746 5721 8
a 5747 5590 45
a 5747 5551 3
a 5747 5579 3
a 5748 5506 10
a 5748 5512 8
a 5749 5584 5
a 5749 5515 47
a 5749 5637 8
a 5750 7450 13
a 5750 7451 25
a 5750 5717 39
a 5751 5650 3
a 5751 5602 10
a 5751 5604 9
a 5752 5710 12
a 5752 5516 33
a 5752 5516 20
a 5753 5712 16
a 5753 5607 10
a 5753 5537 18
a 5754 12378 1
a 5754 11049 3
a 5754 6308 16
a 5755 5572 8
a 5755 5625 7
a 5755 5654 26
a 5756 5725 8
a 5756 5588 2
a 5756 10479 5
a 5756 10513 21
a 5757 5771 8
a 5757 5768 36
a 5757 10448 30
a 5757 5778 17
a 5758 5774 10
a 5758 2439 3
a 5758 5783 18
a 5759 5773 20
a 5760 9011 8
a 5760 5774 6
a 5760 11211 23
a 5761 5775 9
a 5761 11211 8
a 5761 5762 21
a 5761 9011 21
a 5762 5769 15
a 5762 11875 1
a 5762 5761 21
a 5763 5779 26
a 5764 5765 21
a 5765 5771 8
a 5765 11452 18
a 5765 5767 42
a 5765 5764 21
a 5766 10463 5
a 5766 9010 10
a 5766 9010 30
a 5767 5772 8
a 5767 5871 8
a 5767 9010 9
a 5767 5765 42
a 5768 5772 8
a 5768 11211 40
a 5768 5757 36
a 5768 5769 9
a 5769 5762 15
a 5769 10457 22
a 5769 5768 9
a 5769 5777 8
a 5770 5771 39
a 5770 10449 17
a 5770 8216 17
a 5771 5765 8
a 5771 5757 8
a 5771 5772 39
a 5771 5770 39
a 5772 5768 8
a 5772 5767 8
a 5772 5771 39
a 5772 10458 14
a 5773 11211 9
a 5773 5759 20
a 5773 5774 44
a 5773 10459 18
a 5774 5758 10
a 5774 5760 6
a 5774 5773 44
a 5775 5776 8
a 5775 5761 9
a 5775 9007 10
a 5775 9009 18
a 5776 5775 8
a 5776 9007 11
a 5776 9008 23
a 5776 9008 12
a 5777 5778 30
a 5777 10456 6
a 5777 5769 8
a 5778 5780 8
a 5778 5777 30
a 5778 5757 17
a 5778 10450 14
a 5779 5780 25
a 5779 10456 4
a 5779 5763 26
a 5780 5778 8
a 5780 13581 6
a 5780 5779 25
a 5781 5784 6
a 5782 13416 4
a 5782 5784 10
a 5782 5785 13
a 5783 5608 8
a 5783 5758 18
a 5783 5785 21
a 5784 5781 6
a 5784 5782 10
a 5784 5785 20
a 5785 5783 21
a 5785 5782 13
a 5785 5784 20
a 5786 10454 13
a 5786 5732 16
a 5786 12335 2
a 5787 5579 1
a 5787 5443 1
a 5787 5791 21
a 5788 5789 5
a 5788 5793 8
a 5788 8025 25
a 5789 5788 5
a 5789 5791 18
a 5789 5790 22
a 5790 8024 5
a 5790 5789 22
a 5790 5791 8
a 5791 5789 18
a 5791 5787 21
a 5791 5790 8
a 5792 5793 5
a 5793 5792 5
a 5793 5788 8
a 5793 8023 7
a 5794 5795 4
a 5795 5794 4
a 5795 8025 10
a 5795 8023 13
a 5796 10855 3
a 5796 5814 6
a 5796 5797 19
a 5797 5798 13
a 5797 5796 19
a 5797 5799 5
a 5798 5803 3
a 5798 10439 7
a 5798 5797 13
a 5799 5797 5
a 5800 4235 3
a 5800 12352 3
a 5800 5813 65
a 5801 5802 5
a 5802 5801 5
a 5802 5803 24
a 5802 5803 8
a 5803 5798 3
a 5803 5802 24
a 5803 5802 8
a 5804 5805 9
a 5805 5811 8
a 5805 5808 8
a 5805 5804 9
a 5806 5807 5
a 5807 5809 8
a 5807 5806 5
a 5807 5808 21
a 5807 4235 24
a 5808 5807 21
a 5808 5805 8
a 5808 5809 14
a 5809 5807 8
a 5809 5811 10
a 5809 5808 14
a 5810 5811 9
a 5811 5810 9
a 5811 5805 8
a 5811 5809 10
a 5812 5717 3
a 5812 5813 32
a 5812 2438 14
a 5813 10398 4
a 5813 5800 65
a 5813 9759 11
a 5813 5812 32
a 5814 5796 6
a 5814 4236 9
a 5814 11862 29
a 5815 5816 12
a 5816 5823 23
a 5816 5815 12
a 5816 5821 10
a 5816 11946 2
a 5817 5823 4
a 5818 5819 42
a 5818 10418 26
a 5818 5822 22
a 5818 5821 32
a 5819 5821 14
a 5819 5818 42
a 5819 5820 10
a 5820 5819 10
a 5820 5823 10
a 5820 5822 65
a 5821 5819 14
a 5821 5816 10
a 5821 5818 32
a 5822 10412 11
a 5822 5818 22
a 5822 5820 65
a 5823 5817 4
a 5823 5816 23
a 5823 5820 10
a 5824 5829 11
a 5824 5833 15
a 5824 5825 55
a 5825 10422 3
a 5825 5467 6
a 5825 5824 55
a 5826 7454 7
a 5826 12313 29
a 5826 10426 7
a 5827 9126 20
a 5828 5829 9
a 5829 5830 10
a 5829 5824 11
a 5829 5828 9
a 5830 5829 10
a 5830 5831 11
a 5830 10429 14
a 5831 5835 3
a 5831 5832 19
a 5831 5830 11
a 5832 5833 17
a 5832 5831 19
a 5832 11464 29
a 5833 5824 15
a 5833 9127 18
a 5833 5832 17
a 5834 11443 8
a 5835 5831 3
a 5835 11464 6
a 5835 11443 23
a 5836 5839 7
a 5836 5837 21
a 5836 5838 6
a 5837 5838 22
a 5837 5836 21
a 5837 10183 45
a 5838 5843 9
a 5838 5837 22
a 5838 5836 6
a 5838 5841 30
a 5839 5836 7
a 5839 11442 23
a 5839 11464 2
a 5840 11442 8
a 5840 5841 9
a 5840 10057 15
a 5841 5840 9
a 5841 8992 15
a 5841 5838 30
a 5842 5843 9
a 5843 5842 9
a 5843 5838 9
a 5843 5845 3
a 5843 5856 44
a 5844 5856 4
a 5845 5843 3
a 5845 5856 50
a 5845 10090 5
a 5846 12496 1
a 5846 12495 1
a 5846 12640 23
a 5847 5849 8
a 5847 3310 55
a 5847 5851 24
a 5848 5850 5
a 5849 4108 17
a 5849 5847 8
a 5849 5850 35
a 5850 5851 11
a 5850 5848 5
a 5850 5849 35
a 5851 5850 11
a 5851 5847 24
a 5851 12191 13
a 5852 5853 2
a 5852 5855 19
a 5852 12627 45
a 5853 5852 2
a 5853 10187 8
a 5853 10186 15
a 5854 5855 13
a 5855 5852 19
a 5855 10182 8
a 5855 5854 13
a 5856 5844 4
a 5856 5843 44
a 5856 5845 50
a 5857 13118 10
a 5858 5865 13
a 5858 13118 15
a 5858 5859 31
a 5859 11853 8
a 5859 5858 31
a 5859 11855 16
a 5859 5865 12
a 5860 5861 5
a 5861 5863 4
a 5861 5864 28
a 5861 13118 4
a 5861 5860 5
a 5862 5863 4
a 5863 5861 4
a 5863 9107 5
a 5863 11871 38
a 5863 5862 4
a 5864 11855 12
a 5864 5865 7
a 5864 5861 28
a 5865 5858 13
a 5865 5864 7
a 5865 5859 12
a 5866 5673 9
a 5866 5546 6
a 5866 5867 39
a 5867 9107 4
a 5867 5866 39
a 5867 11269 32
a 5867 5570 5
a 5868 11853 13
a 5869 5871 30
a 5870 5871 19
a 5871 5767 8
a 5871 5869 30
a 5871 5870 19
a 5872 4196 16
a 5872 9776 10
a 5872 5873 34
a 5873 5872 34
a 5873 10834 8
a 5873 5874 3
a 5874 4198 6
a 5874 5886 25
a 5874 5873 3
a 5875 7562 4
a 5875 5876 10
a 5875 11492 5
a 5875 12669 6
a 5876 5877 20
a 5876 5875 10
a 5876 5902 17
a 5877 8329 2
a 5877 5876 20
a 5877 5899 10
a 5878 9463 9
a 5878 10855 8
a 5878 5879 6
a 5879 5880 10
a 5879 8329 16
a 5879 5878 6
a 5880 5879 10
a 5880 12733 5
a 5880 8329 22
a 5881 7176 70
a 5881 5882 26
a 5881 13121 3
a 5882 5884 21
a 5882 10836 23
a 5882 5881 26
a 5883 12671 4
a 5883 5884 10
a 5883 10836 5
a 5884 13122 4
a 5884 5882 21
a 5884 5883 10
a 5885 4198 3
a 5885 5886 53
a 5885 10443 14
a 5886 7562 14
a 5886 5874 25
a 5886 5885 53
a 5887 5897 13
a 5888 5893 6
a 5888 5894 6
a 5888 7173 8
a 5889 8324 1
a 5889 7171 8
a 5889 9767 35
a 5890 5891 14
a 5891 5890 14
a 5891 5893 6
a 5891 8324 11
a 5892 8331 6
a 5892 5907 21
a 5892 5895 12
a 5893 5888 6
a 5893 9761 25
a 5893 5891 6
a 5894 5908 15
a 5894 5888 6
a 5894 8332 9
a 5895 7172 12
a 5895 5908 16
a 5895 5892 12
a 5895 5919 27
a 5896 7172 10
a 5896 5917 30
a 5896 5909 14
a 5897 11384 9
a 5897 5917 9
a 5897 5887 13
a 5898 5909 3
a 5898 11384 7
a 5898 5911 30
a 5899 5877 10
a 5899 5912 13
a 5899 12764 22
a 5900 5906 19
a 5900 5901 10
a 5900 5907 10
a 5901 5904 11
a 5901 5914 8
a 5901 5900 10
a 5902 12763 1
a 5902 5904 12
a 5902 5876 17
a 5903 5906 4
a 5904 5901 11
a 5904 5902 12
a 5904 5915 8
a 5905 5906 10
a 5905 5914 8
a 5905 5915 24
a 5906 5905 10
a 5906 5903 4
a 5906 5900 19
a 5907 8332 18
a 5907 5892 21
a 5907 5908 10
a 5907 5900 10
a 5908 5894 15
a 5908 7173 16
a 5908 5895 16
a 5908 5907 10
a 5909 5912 6
a 5909 5898 3
a 5909 5896 14
a 5910 5911 30
a 5911 5898 30
a 5911 9760 9
a 5911 5910 30
a 5912 5909 6
a 5912 5913 4
a 5912 5899 13
a 5913 5912 4
a 5913 5913 44
a 5913 5913 44
a 5914 5901 8
a 5914 5905 8
a 5914 5915 14
a 5915 5914 14
a 5915 5904 8
a 5915 5905 24
a 5916 9771 13
a 5917 7109 7
a 5917 5896 30
a 5917 9771 18
a 5917 5897 9
a 5918 5924 14
a 5918 9775 6
a 5918 4220 15
a 5919 8323 2
a 5919 5895 27
a 5919 7173 6
a 5920 5921 8
a 5921 9721 6
a 5921 5924 4
a 5921 5922 7
a 5921 5920 8
a 5922 5921 7
a 5923 5924 6
a 5924 5921 4
a 5924 5918 14
a 5924 5923 6
a 5925 9723 6
a 5925 13491 17
a 5925 4220 16
a 5926 13491 21
a 5926 4183 5
a 5926 9723 4
a 5927 4206 11
a 5927 5928 16
a 5927 5930 8
a 5928 4205 11
a 5928 5927 16
a 5928 5929 7
a 5929 5930 16
a 5929 5930 26
a 5929 5928 7
a 5930 5929 16
a 5930 5929 26
a 5930 5927 8
a 5931 4194 9
a 5931 13110 33
a 5931 5932 15
a 5932 4185 20
a 5932 5931 15
a 5932 4184 13
a 5933 5934 7
a 5933 7437 22
a 5933 8718 12
a 5934 7201 2
a 5934 10995 1
a 5934 5933 7
a 5935 13206 6
a 5935 5937 37
a 5935 8343 7
a 5936 12552 1
a 5936 2437 9
a 5937 13132 18
a 5937 5935 37
a 5937 11775 34
a 5938 8343 9
a 5938 11775 10
a 5938 11011 19
a 5938 7459 11
a 5939 11011 22
a 5939 11010 8
a 5939 7456 7
a 5940 12552 31
a 5941 5955 4
a 5941 5953 24
a 5941 7458 6
a 5942 7197 6
a 5942 5943 8
a 5942 5968 4
a 5943 9765 2
a 5943 5965 11
a 5943 5949 6
a 5943 5942 8
a 5944 5946 3
a 5945 5948 6
a 5945 9763 4
a 5945 5949 30
a 5946 5961 5
a 5946 5944 3
a 5946 5948 6
a 5946 5962 15
a 5947 5964 6
a 5947 7195 8
a 5947 7196 10
a 5948 5946 6
a 5948 5945 6
a 5948 5949 27
a 5949 5948 27
a 5949 5945 30
a 5949 5943 6
a 5950 7566 3
a 5950 4182 12
a 5950 5971 8
a 5951 5972 5
a 5951 5976 21
a 5951 5970 18
a 5952 5979 2
a 5953 5954 6
a 5953 5941 24
a 5953 5966 7
a 5954 5953 6
a 5954 5956 6
a 5954 5955 22
a 5955 5941 4
a 5955 5957 4
a 5955 5954 22
a 5956 5954 6
a 5956 5959 6
a 5956 5957 20
a 5957 5955 4
a 5957 5960 4
a 5957 5956 20
a 5958 5974 6
a 5958 9764 2
a 5958 5970 6
a 5958 5969 16
a 5959 5956 6
a 5959 5979 16
a 5959 5973 8
a 5959 5981 6
a 5960 5957 4
a 5960 5981 12
a 5960 8359 13
a 5960 5978 4
a 5961 5963 6
a 5961 5946 5
a 5961 5962 14
a 5962 5964 6
a 5962 5961 14
a 5962 5946 15
a 5963 5965 5
a 5963 5961 6
a 5963 5964 15
a 5964 5947 6
a 5964 5962 6
a 5964 5963 15
a 5965 5943 11
a 5965 5963 5
a 5965 7195 8
a 5966 5967 9
a 5966 7196 7
a 5966 5968 14
a 5966 5953 7
a 5967 5966 9
a 5967 9766 2
a 5967 5968 19
a 5968 5942 4
a 5968 5966 14
a 5968 5967 19
a 5969 5975 6
a 5969 5958 16
a 5969 11808 6
a 5970 5958 6
a 5970 5977 14
a 5970 5951 18
a 5971 5976 11
a 5971 5950 8
a 5971 5977 25
a 5972 5951 5
a 5973 5974 5
a 5973 5959 8
a 5973 5975 14
a 5974 5973 5
a 5974 5958 6
a 5974 5975 12
a 5975 5969 6
a 5975 5973 14
a 5975 5974 12
a 5976 5971 11
a 5976 5977 5
a 5976 5951 21
a 5977 9770 2
a 5977 5976 5
a 5977 5971 25
a 5977 5970 14
a 5978 5980 20
a 5978 7207 12
a 5978 5960 4
a 5978 7204 19
a 5979 5952 2
a 5979 5980 5
a 5979 5959 16
a 5980 5979 5
a 5980 8359 5
a 5980 5978 20
a 5981 5960 12
a 5981 8359 8
a 5981 5959 6
a 5982 12612 2
a 5982 5983 15
a 5982 3873 19
a 5983 5982 15
a 5984 10892 6
a 5984 3873 12
a 5984 5987 12
a 5985 5986 11
a 5986 11637 17
a 5986 8101 28
a 5986 5985 11
a 5987 8101 4
a 5987 12615 5
a 5987 5984 12
a 5988 12523 9
a 5988 12936 3
a 5988 12614 8
a 5989 5990 10
a 5989 12523 26
a 5989 12521 1
a 5990 5989 10
a 5990 11538 8
a 5990 3870 6
a 5991 5992 7
a 5991 5996 27
a 5991 12018 56
a 5992 4074 7
a 5992 5991 7
a 5992 11769 38
a 5993 4015 7
a 5994 4015 8
a 5994 3948 16
a 5994 9108 49
a 5995 8585 3
a 5995 11659 31
a 5995 12641 22
a 5996 5998 28
a 5996 5991 27
a 5996 10892 11
a 5997 5998 21
a 5998 5996 28
a 5998 5997 21
a 5998 6000 8
a 5999 6000 13
a 6000 5999 13
a 6000 5998 8
a 6000 8585 2
a 6001 8585 12
a 6002 13229 15
a 6002 10390 8
a 6002 11633 9
a 6003 12613 7
a 6003 4258 10
a 6003 8869 10
a 6003 6010 35
a 6004 4252 34
a 6005 6007 6
a 6005 11981 10
a 6005 12018 18
a 6006 6007 12
a 6006 9620 15
a 6006 8943 19
a 6007 6005 6
a 6007 6006 12
a 6007 8565 15
a 6008 6009 2
a 6009 6008 2
a 6009 4257 26
a 6009 13574 15
a 6010 6016 8
a 6010 4258 11
a 6010 6003 35
a 6011 4254 8
a 6011 4252 13
a 6011 6012 12
a 6012 4252 11
a 6012 4253 13
a 6012 6011 12
a 6013 6014 16
a 6014 4263 24
a 6014 4251 19
a 6014 6013 16
a 6015 6017 11
a 6015 6016 20
a 6015 6019 7
a 6016 6018 10
a 6016 6010 8
a 6016 6015 20
a 6017 6015 11
a 6017 6018 16
a 6017 12522 17
a 6018 4259 35
a 6018 6016 10
a 6018 6017 16
a 6019 6015 7
a 6020 6036 6
a 6020 3309 17
a 6020 12496 35
a 6021 4250 11
a 6022 6023 5
a 6022 4250 9
a 6022 12353 4
a 6023 6026 19
a 6023 6024 6
a 6023 6022 5
a 6023 4245 30
a 6024 9437 4
a 6024 6027 30
a 6024 6023 6
a 6025 11500 3
a 6025 8320 36
a 6025 6027 5
a 6026 9438 2
a 6026 6023 19
a 6026 12619 12
a 6027 9039 1
a 6027 12616 10
a 6027 6024 30
a 6027 6025 5
a 6028 12592 5
a 6028 12616 3
a 6028 12618 1
a 6029 13549 1
a 6029 12616 1
a 6029 8912 2
a 6030 7481 10
a 6030 6033 5
a 6030 3908 9
a 6031 6048 4
a 6031 6032 14
a 6031 3313 13
a 6032 13235 4
a 6032 6031 14
a 6032 6034 34
a 6032 6033 43
a 6033 3640 2
a 6033 6030 5
a 6033 6032 43
a 6034 10867 4
a 6034 6032 34
a 6034 3309 6
a 6035 10868 8
a 6036 6020 6
a 6036 6038 13
a 6036 6041 10
a 6036 10868 12
a 6037 6038 12
a 6038 11500 16
a 6038 6036 13
a 6038 6039 10
a 6038 6037 12
a 6039 6040 4
a 6039 6041 20
a 6039 6038 10
a 6040 6039 4
a 6041 6039 20
a 6041 12999 4
a 6041 10866 3
a 6041 6036 10
a 6042 6058 14
a 6043 6057 40
a 6043 7510 18
a 6043 7438 62
a 6044 12628 13
a 6044 6045 22
a 6044 7510 14
a 6045 6049 9
a 6045 3313 7
a 6045 6044 22
a 6046 6056 10
a 6046 8341 5
a 6046 6050 8
a 6047 6050 9
a 6047 8354 11
a 6047 6054 15
a 6047 6049 2
a 6048 8712 6
a 6048 6031 4
a 6048 7867 3
a 6049 8712 11
a 6049 6047 2
a 6049 6045 9
a 6050 6047 9
a 6050 6051 12
a 6050 6046 8
a 6051 6055 7
a 6051 6050 12
a 6051 6056 8
a 6052 6053 9
a 6053 6052 9
a 6053 6055 8
a 6053 7484 16
a 6054 6055 9
a 6054 7484 11
a 6054 6047 15
a 6054 13544 5
a 6055 6051 7
a 6055 10870 13
a 6055 6054 9
a 6055 6053 8
a 6056 6046 10
a 6056 10871 5
a 6056 6051 8
a 6057 6043 40
a 6058 6042 14
a 6058 4112 15
a 6058 4113 13
a 6059 6069 7
a 6059 6072 35
a 6059 6119 25
a 6059 6075 8
a 6060 5153 1
a 6060 11108 7
a 6060 12574 2
a 6061 9634 2
a 6061 6068 11
a 6062 6063 9
a 6062 12255 4
a 6062 6064 37
a 6063 6065 10
a 6063 6062 9
a 6063 6064 28
a 6064 6066 10
a 6064 6062 37
a 6064 6063 28
a 6065 6067 18
a 6065 6063 10
a 6065 6066 28
a 6066 6068 13
a 6066 6064 10
a 6066 6065 28
a 6067 12334 8
a 6067 6065 18
a 6067 6068 28
a 6068 6066 13
a 6068 6067 28
a 6068 6061 11
a 6069 6059 7
a 6069 6084 37
a 6069 12832 55
a 6069 6134 6
a 6070 5148 11
a 6070 10838 13
a 6070 6071 8
a 6071 6073 21
a 6071 6070 8
a 6071 6083 7
a 6071 6164 7
a 6072 12831 14
a 6072 6076 7
a 6072 6059 35
a 6073 6163 6
a 6073 6082 6
a 6073 6153 29
a 6073 6071 21
a 6074 6152 4
a 6074 6156 4
a 6074 6166 6
a 6075 6078 7
a 6075 6076 35
a 6075 6059 8
a 6076 6079 7
a 6076 6072 7
a 6076 6077 16
a 6076 6075 35
a 6077 6076 16
a 6077 12830 6
a 6077 6080 7
a 6078 6079 35
a 6078 6081 6
a 6078 6075 7
a 6079 6082 6
a 6079 6076 7
a 6079 6080 18
a 6079 6078 35
a 6080 6079 18
a 6080 6077 7
a 6080 6083 6
a 6081 6082 35
a 6081 6078 6
a 6081 6153 12
a 6082 6073 6
a 6082 6079 6
a 6082 6083 19
a 6082 6081 35
a 6083 6082 19
a 6083 6080 6
a 6083 6071 7
a 6084 6133 18
a 6084 6069 37
a 6085 6145 8
a 6085 6091 39
a 6086 6149 10
a 6086 6147 6
a 6086 7920 17
a 6087 6121 6
a 6087 10251 2
a 6087 6109 26
a 6088 6089 17
a 6088 6095 36
a 6088 7920 5
a 6089 6088 17
a 6089 6099 7
a 6089 6093 21
a 6090 6096 35
a 6090 6121 17
a 6090 6109 5
a 6091 6130 11
a 6091 6144 5
a 6091 6085 39
a 6092 6131 12
a 6092 6149 11
a 6092 6144 32
a 6092 6093 7
a 6093 6119 21
a 6093 6089 21
a 6093 6092 7
a 6093 6879 7
a 6094 6116 11
a 6094 6878 10
a 6094 6111 6
a 6095 9544 29
a 6095 6100 6
a 6095 6088 36
a 6096 6090 35
a 6096 6099 29
a 6096 6110 5
a 6096 6123 6
a 6097 6107 6
a 6097 6118 5
a 6097 6122 32
a 6098 6117 6
a 6098 6119 7
a 6098 6118 24
a 6099 6096 29
a 6099 6089 7
a 6099 6101 6
a 6099 6103 5
a 6100 6123 6
a 6100 6095 6
a 6100 6102 6
a 6101 6099 6
a 6101 6102 28
a 6101 6102 28
a 6102 6100 6
a 6102 6101 28
a 6102 6101 28
a 6103 6099 5
a 6103 6105 5
a 6103 6104 28
a 6104 6878 6
a 6104 6105 23
a 6104 6103 28
a 6105 6103 5
a 6105 6112 5
a 6105 6104 23
a 6106 6127 6
a 6106 6107 6
a 6106 6878 27
a 6107 6097 6
a 6107 6116 4
a 6107 6106 6
a 6108 6126 10
a 6108 6109 15
a 6108 6129 24
a 6109 6108 15
a 6109 6090 5
a 6109 6087 26
a 6109 6120 6
a 6110 6878 5
a 6110 6096 5
a 6110 6126 10
a 6111 6094 6
a 6111 6879 23
a 6111 6112 29
a 6112 6105 5
a 6112 6879 6
a 6112 6111 29
a 6113 6879 5
a 6113 6115 5
a 6113 6114 29
a 6114 6116 5
a 6114 6115 24
a 6114 6113 29
a 6115 6113 5
a 6115 6117 5
a 6115 6114 24
a 6116 6107 4
a 6116 6094 11
a 6116 6114 5
a 6117 6115 5
a 6117 6098 6
a 6117 6118 29
a 6118 6097 5
a 6118 6117 29
a 6118 6098 24
a 6119 6098 7
a 6119 6059 25
a 6119 6093 21
a 6120 6109 6
a 6120 6122 15
a 6120 6122 21
a 6121 9544 6
a 6121 6087 6
a 6121 6090 17
a 6122 6120 15
a 6122 6120 21
a 6122 6097 32
a 6123 6096 6
a 6123 6100 6
a 6123 6124 5
a 6124 6123 5
a 6124 6125 29
a 6124 6125 29
a 6125 9544 6
a 6125 6124 29
a 6125 6124 29
a 6126 6128 5
a 6126 6110 10
a 6126 6108 10
a 6127 6106 6
a 6127 6128 20
a 6127 6129 6
a 6128 6127 20
a 6128 6126 5
a 6128 6129 21
a 6129 6108 24
a 6129 6127 6
a 6129 6128 21
a 6130 6091 11
a 6130 6139 5
a 6130 6142 5
a 6131 6132 17
a 6131 6092 12
a 6131 6143 6
a 6132 6134 12
a 6132 6131 17
a 6132 6138 6
a 6133 6084 18
a 6133 6135 5
a 6133 6139 11
a 6134 6132 12
a 6134 6137 6
a 6134 6069 6
a 6135 6133 5
a 6135 6136 6
a 6135 6138 25
a 6136 6135 6
a 6136 6137 31
a 6136 6137 32
a 6137 6134 6
a 6137 6136 32
a 6137 6136 31
a 6138 6132 6
a 6138 6141 6
a 6138 6135 25
a 6139 6130 5
a 6139 6140 5
a 6139 6133 11
a 6140 6139 5
a 6140 6141 30
a 6140 6141 30
a 6141 6138 6
a 6141 6140 30
a 6141 6140 30
a 6142 6143 26
a 6142 6143 35
a 6142 6130 5
a 6143 6131 6
a 6143 6142 26
a 6143 6142 35
a 6144 6092 32
a 6144 6091 5
a 6144 6151 6
a 6145 6085 8
a 6145 6146 14
a 6145 6147 15
a 6146 6145 14
a 6146 6148 6
a 6146 6147 26
a 6147 6086 6
a 6147 6146 26
a 6147 6145 15
a 6148 6150 25
a 6148 6146 6
a 6148 6151 5
a 6149 6092 11
a 6149 6086 10
a 6149 6150 6
a 6150 6149 6
a 6150 6148 25
a 6150 6151 30
a 6151 6144 6
a 6151 6148 5
a 6151 6150 30
a 6152 6074 4
a 6152 11939 9
a 6152 11940 8
a 6153 6073 29
a 6153 6162 6
a 6153 6081 12
a 6154 6157 5
a 6154 11940 18
a 6154 6155 12
a 6155 6154 12
a 6155 11974 24
a 6155 11974 21
a 6156 6074 4
a 6156 6159 7
a 6156 6157 30
a 6157 6154 5
a 6157 6158 7
a 6157 6156 30
a 6158 6157 7
a 6158 6161 6
a 6158 6159 29
a 6159 6156 7
a 6159 6160 6
a 6159 6158 29
a 6160 6159 6
a 6160 12850 5
a 6160 6161 29
a 6161 6158 6
a 6161 6162 6
a 6161 6160 29
a 6162 6161 6
a 6162 6163 29
a 6162 6153 6
a 6163 12850 1
a 6163 6073 6
a 6163 6162 29
a 6164 6165 16
a 6164 6170 7
a 6164 6071 7
a 6165 6169 7
a 6165 6164 16
a 6165 12850 6
a 6166 6167 14
a 6166 6168 7
a 6166 6074 6
a 6167 6166 14
a 6167 6170 15
a 6167 6168 16
a 6168 6166 7
a 6168 6169 6
a 6168 6167 16
a 6169 6168 6
a 6169 6165 7
a 6169 6170 17
a 6170 6169 17
a 6170 6164 7
a 6170 6167 15
a 6171 10838 6
a 6171 11963 2
a 6171 5151 13
a 6172 6173 15
a 6172 6263 16
a 6172 6255 12
a 6173 10257 1
a 6173 6175 4
a 6173 6172 15
a 6174 6178 11
a 6174 6193 13
a 6174 6192 24
a 6175 6181 20
a 6175 6173 4
a 6175 13173 1
a 6176 6886 6
a 6176 6178 10
a 6176 10367 6
a 6177 6190 7
a 6178 6176 10
a 6178 6174 11
a 6178 12996 9
a 6179 6182 20
a 6179 13173 4
a 6179 6252 5
a 6180 6181 10
a 6180 10257 20
a 6180 6187 19
a 6180 11567 10
a 6181 6182 10
a 6181 6180 10
a 6181 6175 20
a 6181 6186 19
a 6182 6179 20
a 6182 6185 19
a 6182 6183 10
a 6182 6181 10
a 6183 6182 10
a 6183 6252 20
a 6183 6184 19
a 6184 6185 10
a 6184 6183 19
a 6184 6190 19
a 6185 6182 19
a 6185 6191 19
a 6185 6186 10
a 6185 6184 10
a 6186 6187 10
a 6186 6185 10
a 6186 6192 20
a 6186 6181 19
a 6187 6188 10
a 6187 6186 10
a 6187 6180 19
a 6187 6192 30
a 6188 11567 20
a 6188 6187 10
a 6188 11925 10
a 6188 11814 32
a 6189 11567 19
a 6189 10257 5
a 6189 6259 18
a 6190 6191 10
a 6190 6184 19
a 6190 6177 7
a 6191 6185 19
a 6191 12997 6
a 6191 6192 10
a 6191 6190 10
a 6192 6191 10
a 6192 6186 20
a 6192 6187 30
a 6192 6174 24
a 6193 6174 13
a 6193 13142 3
a 6193 6194 9
a 6194 5482 22
a 6194 6198 9
a 6194 6193 9
a 6195 6196 19
a 6195 6198 9
a 6195 9012 21
a 6196 6195 19
a 6196 6197 9
a 6196 10368 5
a 6197 6198 21
a 6197 5482 9
a 6197 6196 9
a 6198 6197 21
a 6198 6195 9
a 6198 6194 9
a 6199 6200 9
a 6200 6199 9
a 6200 5131 45
a 6200 6201 19
a 6201 9574 16
a 6201 6200 19
a 6201 5132 35
a 6202 11582 5
a 6202 5155 7
a 6203 6205 2
a 6204 6207 9
a 6204 5156 17
a 6204 6219 15
a 6205 6203 2
a 6205 13157 2
a 6205 6215 31
a 6205 5156 20
a 6206 6237 4
a 6207 6204 9
a 6207 6208 11
a 6207 5157 8
a 6208 6209 33
a 6208 6207 11
a 6208 10484 27
a 6209 6208 33
a 6209 5156 15
a 6209 6210 11
a 6209 10484 15
a 6210 6209 11
a 6211 5155 38
a 6211 6212 17
a 6211 5156 15
a 6212 11319 1
a 6212 6211 17
a 6212 9624 6
a 6213 10840 4
a 6213 11280 1
a 6213 6214 4
a 6214 5155 4
a 6214 11320 4
a 6214 6213 4
a 6215 6216 33
a 6215 6205 31
a 6215 6217 21
a 6216 11582 10
a 6216 6215 33
a 6216 6217 41
a 6217 6215 21
a 6217 6216 41
a 6218 9625 3
a 6218 6225 9
a 6218 13154 8
a 6219 6204 15
a 6220 5159 5
a 6220 6223 7
a 6220 6227 12
a 6221 5157 2
a 6221 9631 5
a 6221 6223 23
a 6222 6223 5
a 6222 12679 2
a 6222 12680 1
a 6223 6220 7
a 6223 6222 5
a 6223 6221 23
a 6224 6225 16
a 6225 5159 8
a 6225 6224 16
a 6225 6218 9
a 6226 6227 5
a 6227 5158 5
a 6227 6226 5
a 6227 6220 12
a 6228 5158 7
a 6228 9630 5
a 6228 6229 11
a 6228 6230 13
a 6229 6228 11
a 6229 11943 6
a 6229 9013 12
a 6230 6232 7
a 6230 11942 7
a 6230 6228 13
a 6231 6232 8
a 6232 6230 7
a 6232 6234 8
a 6232 6231 8
a 6233 6234 5
a 6234 6232 8
a 6234 5150 5
a 6234 6233 5
a 6235 9623 20
a 6235 10484 15
a 6235 6243 13
a 6235 9629 15
a 6236 6238 5
a 6237 10484 6
a 6237 6206 4
a 6237 6238 30
a 6238 9623 6
a 6238 6236 5
a 6238 6237 30
a 6239 6240 20
a 6240 6239 20
a 6240 9623 14
a 6240 6241 11
a 6240 6243 11
a 6241 6245 6
a 6241 6240 11
a 6241 6242 9
a 6242 13146 20
a 6242 13146 24
a 6242 6241 9
a 6243 13146 10
a 6243 6235 13
a 6243 6240 11
a 6244 6245 13
a 6244 5147 28
a 6244 11142 7
a 6245 12295 11
a 6245 6244 13
a 6245 6241 6
a 6245 6246 11
a 6246 6245 11
a 6246 12867 1
a 6246 12286 3
a 6247 5632 9
a 6247 6248 21
a 6247 5450 12
a 6248 6247 21
a 6248 5444 10
a 6248 5727 22
a 6249 10361 8
a 6250 5591 4
a 6251 12356 2
a 6251 6252 20
a 6251 5677 2
a 6252 6183 20
a 6252 6179 5
a 6252 6251 20
a 6253 6258 9
a 6253 6254 17
a 6253 12860 4
a 6254 6257 10
a 6254 6261 8
a 6254 6253 17
a 6255 10258 5
a 6255 6172 12
a 6255 6264 8
a 6256 6258 21
a 6256 6257 16
a 6256 6263 19
a 6257 6258 16
a 6257 6254 10
a 6257 6256 16
a 6258 6253 9
a 6258 6257 16
a 6258 6256 21
a 6259 12575 8
a 6259 12861 8
a 6259 6189 18
a 6260 6276 3
a 6260 8522 37
a 6260 8522 20
a 6261 6269 6
a 6261 8522 16
a 6261 6254 8
a 6262 6263 8
a 6262 6266 10
a 6262 6264 30
a 6263 6256 19
a 6263 6172 16
a 6263 6262 8
a 6264 6265 9
a 6264 6262 30
a 6264 6255 8
a 6265 6264 9
a 6265 6266 34
a 6265 6267 10
a 6266 6262 10
a 6266 6268 10
a 6266 6265 34
a 6267 6272 8
a 6267 6268 37
a 6267 6265 10
a 6268 6269 9
a 6268 6266 10
a 6268 6267 37
a 6269 6268 9
a 6269 6261 6
a 6269 6270 7
a 6270 6269 7
a 6270 6271 28
a 6270 12675 26
a 6271 6270 28
a 6271 6272 3
a 6271 12675 13
a 6272 6273 9
a 6272 6267 8
a 6272 6271 3
a 6273 6272 9
a 6273 7002 31
a 6273 6274 18
a 6274 12675 9
a 6274 7003 6
a 6274 6273 18
a 6275 6276 8
a 6275 7006 7
a 6275 6277 14
a 6276 6275 8
a 6276 6260 3
a 6276 12835 1
a 6277 10356 15
a 6277 10254 7
a 6277 6275 14
a 6278 10056 20
a 6279 6337 17
a 6279 12838 2
a 6279 6344 3
a 6280 6284 9
a 6280 6288 23
a 6280 12837 5
a 6281 6282 18
a 6281 10355 6
a 6281 11554 15
a 6282 8958 16
a 6282 6281 18
a 6282 6283 8
a 6283 6282 8
a 6283 6291 4
a 6283 8957 8
a 6284 6294 7
a 6284 6280 9
a 6284 6296 5
a 6285 6296 12
a 6285 6297 33
a 6285 6286 8
a 6286 6292 24
a 6286 6289 12
a 6286 6285 8
a 6287 6288 10
a 6288 11554 15
a 6288 6287 10
a 6288 6280 23
a 6289 8958 11
a 6289 12887 3
a 6289 11554 18
a 6289 6286 12
a 6290 6299 9
a 6290 8958 11
a 6290 8957 9
a 6290 6292 11
a 6291 8957 20
a 6291 7901 20
a 6291 6283 4
a 6292 6286 24
a 6292 6293 24
a 6292 6290 11
a 6293 6297 19
a 6293 6302 11
a 6293 6292 24
a 6294 6284 7
a 6294 6301 55
a 6294 6333 16
a 6295 6297 13
a 6295 6296 18
a 6295 6301 7
a 6296 6295 18
a 6296 6284 5
a 6296 6285 12
a 6297 6295 13
a 6297 6293 19
a 6297 6285 33
a 6298 9787 4
a 6298 6299 11
a 6298 6300 37
a 6299 6290 9
a 6299 6298 11
a 6299 6303 36
a 6300 6307 7
a 6300 6303 7
a 6300 6298 37
a 6301 6295 7
a 6301 6302 24
a 6301 6294 55
a 6302 6303 7
a 6302 6293 11
a 6302 6301 24
a 6303 6302 7
a 6303 6300 7
a 6303 6299 36
a 6304 12042 10
a 6304 10359 5
a 6304 6306 10
a 6305 410 14
a 6305 6306 16
a 6305 10359 32
a 6306 6305 16
a 6306 6307 6
a 6306 6304 10
a 6307 6306 6
a 6307 6300 7
a 6307 6321 9
a 6308 6314 14
a 6308 5754 16
a 6308 5581 4
a 6309 6324 3
a 6309 6310 27
a 6309 410 5
a 6310 6323 7
a 6310 12676 4
a 6310 6309 27
a 6311 6312 5
a 6311 6313 22
a 6311 12182 8
a 6312 6311 5
a 6313 7945 6
a 6313 7900 20
a 6313 6311 22
a 6314 7945 5
a 6314 6315 18
a 6314 7871 8
a 6314 6308 14
a 6315 6314 18
a 6316 9810 2
a 6316 7871 8
a 6316 6318 71
a 6317 6318 9
a 6317 7869 25
a 6317 7869 38
a 6318 6317 9
a 6318 7895 8
a 6318 6316 71
a 6319 6320 2
a 6319 7895 8
a 6319 7945 25
a 6320 6319 2
a 6320 6321 17
a 6320 6321 25
a 6321 6320 17
a 6321 6320 25
a 6321 6307 9
a 6322 6323 12
a 6322 10471 2
a 6322 6325 22
a 6323 6324 23
a 6323 6310 7
a 6323 6322 12
a 6324 6323 23
a 6324 6309 3
a 6324 6325 4
a 6325 6322 22
a 6325 5581 2
a 6325 6324 4
a 6326 7896 1
a 6326 11479 12
a 6326 7119 3
a 6327 6329 23
a 6327 7896 10
a 6327 7898 10
a 6328 6330 9
a 6328 6329 9
a 6328 6331 26
a 6329 6328 9
a 6329 6327 23
a 6329 6332 31
a 6330 7902 15
a 6330 6328 9
a 6330 6331 34
a 6331 6328 26
a 6331 6332 13
a 6331 6330 34
a 6332 6329 31
a 6332 7898 11
a 6332 6331 13
a 6333 6294 16
a 6333 6335 41
a 6333 6336 14
a 6334 10440 27
a 6334 7902 41
a 6334 6336 8
a 6335 6336 41
a 6335 7902 5
a 6335 6333 41
a 6336 6335 41
a 6336 6333 14
a 6336 6334 8
a 6337 6279 17
a 6338 10846 6
a 6339 10400 8
a 6339 10401 3
a 6339 6340 20
a 6340 6339 20
a 6340 6341 41
a 6340 6342 22
a 6341 6342 29
a 6341 6340 41
a 6342 6341 29
a 6342 6340 22
a 6343 6347 10
a 6343 6345 13
a 6343 7158 29
a 6344 6345 15
a 6344 6279 3
a 6344 6346 9
a 6345 6346 16
a 6345 6344 15
a 6345 6343 13
a 6346 6345 16
a 6346 10056 7
a 6346 6344 9
a 6347 10056 13
a 6347 6343 10
a 6347 7159 11
a 6348 7159 20
a 6349 6353 10
a 6349 6354 33
a 6349 6351 10
a 6350 6351 19
a 6350 10256 18
a 6351 6350 19
a 6351 10256 27
a 6351 6349 10
a 6352 6354 7
a 6352 7904 8
a 6353 6349 10
a 6353 6354 21
a 6354 6352 7
a 6354 6349 33
a 6354 6353 21
a 6355 11568 3
a 6355 7157 6
a 6355 10406 74
a 6356 7897 3
a 6356 6357 2
a 6356 12339 57
a 6357 6356 2
a 6357 7896 7
a 6357 6358 66
a 6358 10406 6
a 6358 6357 66
a 6358 10407 39
a 6359 6363 11
a 6359 6362 27
a 6359 11858 8
a 6360 6363 11
a 6360 6361 26
a 6360 7182 18
a 6361 7899 13
a 6361 411 12
a 6361 6360 26
a 6361 6362 11
a 6362 6359 27
a 6362 6361 11
a 6362 6363 21
a 6363 6359 11
a 6363 6360 11
a 6363 6362 21
a 6364 6654 11
a 6364 6711 11
a 6364 4159 39
a 6364 6509 30
a 6365 6670 9
a 6365 6554 43
a 6365 6487 19
a 6365 6469 25
a 6366 6643 9
a 6366 12631 23
a 6366 6441 20
a 6367 9633 11
a 6367 6720 4
a 6367 6764 6
a 6367 12303 2
a 6368 6655 19
a 6369 6377 8
a 6369 6611 8
a 6369 6528 25
a 6370 6587 11
a 6370 6532 19
a 6370 6547 9
a 6371 6525 23
a 6372 7076 5
a 6372 7089 5
a 6372 10660 39
a 6372 6499 11
a 6373 9751 1
a 6373 7093 32
a 6374 3695 9
a 6374 4134 23
a 6375 7198 6
a 6375 12091 6
a 6375 7565 20
a 6375 12278 18
a 6376 3566 7
a 6376 3564 10
a 6376 3558 25
a 6376 3536 21
a 6377 6670 8
a 6377 6369 8
a 6377 6514 25
a 6378 6730 5
a 6378 6733 12
a 6378 6485 20
a 6379 6621 8
a 6379 9195 38
a 6379 11234 17
a 6380 6585 8
a 6380 6699 19
a 6380 6411 19
a 6381 6633 7
a 6381 6573 20
a 6381 6434 20
a 6382 6541 16
a 6382 6563 11
a 6382 6492 47
a 6383 6593 19
a 6383 8471 11
a 6383 6663 12
a 6383 6555 9
a 6384 6575 5
a 6384 8222 28
a 6385 6625 11
a 6385 6721 8
a 6385 6511 14
a 6386 4167 12
a 6386 12940 2
a 6386 6418 27
a 6387 6667 12
a 6387 6584 13
a 6387 9227 9
a 6388 10744 1
a 6388 6725 8
a 6388 10637 13
a 6389 6728 43
a 6389 11467 17
a 6389 8431 16
a 6390 6683 6
a 6390 6562 6
a 6390 6484 26
a 6391 10624 13
a 6391 4179 9
a 6391 9133 4
a 6391 6627 54
a 6392 6524 12
a 6392 6642 12
a 6392 6477 38
a 6393 7079 5
a 6393 7090 5
a 6393 7091 19
a 6394 6425 5
a 6395 4166 24
a 6395 4165 10
a 6395 5041 14
a 6396 9132 8
a 6396 6690 10
a 6396 12031 8
a 6396 6710 22
a 6397 6479 11
a 6397 6652 11
a 6397 6419 16
a 6397 6474 7
a 6398 6692 9
a 6398 13338 19
a 6398 6668 18
a 6399 6496 12
a 6399 7392 17
a 6399 6431 14
a 6400 6523 14
a 6400 12070 8
a 6400 6682 25
a 6401 6520 14
a 6401 4158 16
a 6401 6601 46
a 6402 6725 15
a 6403 10115 7
a 6403 6687 13
a 6403 6576 10
a 6404 6659 8
a 6404 6499 7
a 6404 6555 41
a 6405 6679 30
a 6405 6513 8
a 6405 6583 7
a 6406 6489 6
a 6406 11896 19
a 6406 6549 26
a 6407 6657 17
a 6408 6516 20
a 6408 6512 22
a 6409 8487 8
a 6409 6592 12
a 6409 6739 27
a 6410 9128 15
a 6410 7075 12
a 6410 12630 24
a 6411 6659 10
a 6411 6740 29
a 6411 6380 19
a 6412 6884 12
a 6412 6884 27
a 6412 6674 14
a 6413 6584 18
a 6413 9581 18
a 6413 12695 10
a 6414 11403 7
a 6414 11402 5
a 6414 6561 5
a 6415 7088 5
a 6415 9046 23
a 6415 7323 9
a 6415 6659 11
a 6416 8396 14
a 6416 6685 7
a 6416 6567 6
a 6417 6617 6
a 6417 6606 28
a 6417 9161 41
a 6418 6386 27
a 6418 6491 7
a 6418 4168 11
a 6419 6701 7
a 6419 6536 11
a 6419 6397 16
a 6420 6612 8
a 6420 4169 9
a 6420 6518 60
a 6421 6698 11
a 6421 9194 2
a 6421 6574 22
a 6422 6705 24
a 6423 6694 11
a 6423 6543 19
a 6423 7372 29
a 6424 6481 7
a 6424 6721 11
a 6424 6526 8
a 6425 6394 5
a 6425 6564 9
a 6425 6572 19
a 6426 6430 6
a 6427 11921 13
a 6427 9279 9
a 6427 6468 9
a 6428 6515 11
a 6428 6596 5
a 6428 6734 8
a 6429 6550 6
a 6429 6716 42
a 6429 6715 11
a 6430 7072 10
a 6430 6426 6
a 6430 6736 25
a 6431 6399 14
a 6432 6703 7
a 6432 6703 39
a 6432 6729 7
a 6433 9158 6
a 6433 10710 43
a 6433 6457 9
a 6434 6709 15
a 6434 6381 20
a 6434 6724 12
a 6435 6582 8
a 6435 6657 9
a 6435 4169 27
a 6435 10673 29
a 6436 6467 5
a 6436 6723 8
a 6436 6655 25
a 6437 6467 5
a 6438 10768 4
a 6438 6456 11
a 6438 9427 8
a 6439 6534 12
a 6439 9313 9
a 6439 12345 11
a 6440 13337 1
a 6440 9157 2
a 6440 10736 1
a 6441 6710 9
a 6441 6690 19
a 6441 6366 20
a 6442 6500 9
a 6442 6514 8
a 6442 6670 23
a 6443 11752 17
a 6443 6569 11
a 6443 9323 6
a 6444 6561 6
a 6444 6569 36
a 6444 6628 6
a 6444 6723 11
a 6445 6563 11
a 6445 6519 11
a 6445 6530 32
a 6446 10623 10
a 6446 6722 10
a 6446 6478 45
a 6447 6676 6
a 6447 6482 48
a 6447 12944 20
a 6448 6640 13
a 6448 9190 71
a 6448 6588 11
a 6449 6472 31
a 6449 6539 14
a 6449 6678 8
a 6450 6715 34
a 6450 12694 9
a 6450 6716 10
a 6451 6642 6
a 6451 4177 25
a 6451 9128 16
a 6452 6548 5
a 6452 10118 3
a 6452 6738 10
a 6453 6581 2
a 6453 9132 22
a 6453 12273 4
a 6454 6717 9
a 6454 6703 31
a 6454 9142 8
a 6454 6506 46
a 6455 6561 33
a 6455 6569 7
a 6455 6873 6
a 6455 6608 35
a 6456 10521 2
a 6456 6438 11
a 6456 6545 37
a 6457 6639 6
a 6457 6538 22
a 6457 6433 9
a 6458 6657 8
a 6458 6544 8
a 6458 10739 25
a 6458 12043 24
a 6459 6624 6
a 6459 6704 50
a 6459 6573 11
a 6460 9050 2
a 6460 6585 23
a 6460 9048 5
a 6461 9140 5
a 6461 6595 5
a 6461 9141 39
a 6462 6561 10
a 6463 6601 13
a 6463 11716 13
a 6463 9460 9
a 6464 11402 5
a 6465 7072 11
a 6465 6494 17
a 6465 6680 24
a 6466 10663 5
a 6467 6436 5
a 6467 6437 5
a 6468 9363 11
a 6468 6427 9
a 6468 7392 6
a 6469 6542 3
a 6469 6487 17
a 6469 6365 25
a 6470 10676 4
a 6470 10695 11
a 6470 6669 7
a 6471 6714 23
a 6471 11518 50
a 6471 12695 69
a 6472 6449 31
a 6472 9148 13
a 6472 9361 48
a 6472 12696 14
a 6473 6706 48
a 6473 6598 13
a 6473 10669 16
a 6474 9139 11
a 6474 6397 7
a 6474 6632 17
a 6474 9138 12
a 6475 6495 6
a 6475 6651 7
a 6476 6869 5
a 6476 6608 6
a 6476 9027 9
a 6477 6662 11
a 6477 6510 11
a 6477 6392 38
a 6478 6446 45
a 6478 6722 58
a 6478 10623 54
a 6479 6397 11
a 6480 7324 9
a 6480 6501 8
a 6480 6577 10
a 6480 6740 11
a 6481 6424 7
a 6481 6679 7
a 6481 6583 30
a 6482 12944 1
a 6482 6447 48
a 6482 12945 3
a 6483 10669 13
a 6483 6531 20
a 6483 8398 25
a 6484 6390 26
a 6484 6586 7
a 6484 6562 31
a 6485 6493 6
a 6485 6660 11
a 6485 6378 20
a 6486 12691 10
a 6486 9205 2
a 6486 6571 40
a 6487 6469 17
a 6487 6365 19
a 6487 6676 25
a 6488 6549 11
a 6488 11656 8
a 6488 8399 10
a 6489 6406 6
a 6489 6685 14
a 6489 11469 4
a 6490 10736 29
a 6490 10736 37
a 6490 8463 19
a 6491 6418 7
a 6491 6613 26
a 6491 6546 35
a 6492 6382 47
a 6492 6876 77
a 6492 9144 11
a 6492 11843 17
a 6493 6485 6
a 6493 10547 34
a 6493 6730 22
a 6494 6465 17
a 6494 6680 8
a 6494 6553 8
a 6495 6628 7
a 6495 6630 7
a 6495 6475 6
a 6496 10545 5
a 6496 6399 12
a 6496 8426 44
a 6496 9289 15
a 6497 6620 18
a 6497 13334 2
a 6497 10663 9
a 6498 6565 5
a 6498 10692 2
a 6498 6669 33
a 6499 6404 7
a 6499 8471 31
a 6499 6372 11
a 6500 6442 9
a 6500 6656 10
a 6500 6578 11
a 6501 10664 1
a 6501 6480 8
a 6501 12698 8
a 6502 5127 9
a 6503 6601 11
a 6503 6520 44
a 6503 6505 35
a 6504 6548 5
a 6504 6884 8
a 6504 6597 34
a 6505 6520 18
a 6505 6603 15
a 6505 6503 35
a 6506 6454 46
a 6506 6729 23
a 6506 6717 58
a 6507 6670 22
a 6507 6656 10
a 6507 6578 8
a 6508 10744 18
a 6508 10638 23
a 6508 7372 7
a 6509 6752 15
a 6509 6706 7
a 6509 6364 30
a 6510 6477 11
a 6510 4177 12
a 6510 4174 27
a 6511 6625 7
a 6511 6385 14
a 6511 6721 42
a 6512 6731 8
a 6512 6516 9
a 6513 6405 8
a 6513 6679 38
a 6513 6658 46
a 6514 6528 9
a 6514 6442 8
a 6514 6591 11
a 6514 6377 25
a 6515 6428 11
a 6515 6734 10
a 6515 12090 2
a 6516 6709 6
a 6516 6408 20
a 6517 6533 22
a 6518 6420 60
a 6519 6445 11
a 6519 6530 35
a 6519 6705 24
a 6519 13381 5
a 6520 6505 18
a 6520 6401 14
a 6520 6503 44
a 6521 6649 10
a 6521 8903 3
a 6521 12692 14
a 6522 6647 12
a 6522 10116 8
a 6522 9231 4
a 6522 6666 17
a 6523 6400 14
a 6523 9149 50
a 6523 6570 21
a 6524 9129 11
a 6524 6392 12
a 6524 6662 43
a 6525 6560 15
a 6525 6634 7
a 6525 6371 23
a 6525 6533 9
a 6526 6424 8
a 6526 6658 30
a 6526 12161 44
a 6527 10633 7
a 6527 6677 3
a 6527 10632 16
a 6528 6369 25
a 6528 6514 9
a 6528 6671 6
a 6529 6710 21
a 6529 6643 3
a 6529 6665 56
a 6530 6519 35
a 6530 6445 32
a 6530 11843 13
a 6531 4160 14
a 6531 6654 18
a 6531 6483 20
a 6532 6587 15
a 6532 7370 10
a 6532 6370 19
a 6533 6544 8
a 6533 10674 24
a 6533 6517 22
a 6533 6525 9
a 6534 6616 3
a 6534 6439 12
a 6534 12344 11
a 6535 9229 11
a 6535 9227 5
a 6535 9230 7
a 6536 6419 11
a 6537 6609 33
a 6537 6708 39
a 6537 6594 41
a 6538 6457 22
a 6539 6592 12
a 6539 12696 15
a 6539 6449 14
a 6540 6704 12
a 6540 4167 3
a 6540 7368 17
a 6541 6701 5
a 6541 9145 3
a 6541 6382 16
a 6542 6469 3
a 6543 9135 11
a 6543 6423 19
a 6543 6605 3
a 6544 6458 8
a 6544 6533 8
a 6544 11501 26
a 6544 10675 54
a 6545 6728 26
a 6545 6660 56
a 6545 6456 37
a 6546 6613 11
a 6546 6491 35
a 6546 13069 5
a 6547 4180 8
a 6547 7370 31
a 6547 6370 9
a 6548 6452 5
a 6548 6504 5
a 6548 8488 14
a 6549 6488 11
a 6549 11657 15
a 6549 6406 26
a 6550 6429 6
a 6550 10691 16
a 6550 9174 33
a 6550 10937 6
a 6551 12631 15
a 6551 6718 9
a 6551 6559 67
a 6552 6632 12
a 6552 6686 9
a 6552 9203 2
a 6553 6494 8
a 6553 6736 7
a 6553 7072 14
a 6554 6627 9
a 6554 6607 8
a 6554 6365 43
a 6555 6585 8
a 6555 6404 41
a 6555 6383 9
a 6556 6580 11
a 6556 9136 3
a 6556 6607 51
a 6557 9148 53
a 6557 6653 13
a 6557 6712 10
a 6558 10669 9
a 6558 6702 6
a 6558 9181 42
a 6558 4160 40
a 6559 6643 11
a 6559 6696 38
a 6559 6551 67
a 6560 6525 15
a 6561 6455 33
a 6561 6462 10
a 6561 6444 6
a 6561 6414 5
a 6562 6390 6
a 6562 6708 37
a 6562 6484 31
a 6563 6445 11
a 6563 11843 40
a 6563 6382 11
a 6564 11751 10
a 6564 9323 7
a 6564 6425 9
a 6565 6498 5
a 6565 6669 28
a 6565 6669 37
a 6566 13340 3
a 6566 13303 2
a 6566 6599 19
a 6567 11469 30
a 6567 6416 6
a 6567 6571 39
a 6568 6572 6
a 6569 6443 11
a 6569 6455 7
a 6569 6444 36
a 6569 6688 34
a 6570 9195 40
a 6570 6523 21
a 6570 6682 12
a 6571 9204 16
a 6571 6685 12
a 6571 6486 40
a 6571 6567 39
a 6572 6568 6
a 6572 11751 2
a 6572 6425 19
a 6573 9282 7
a 6573 6381 20
a 6573 6459 11
a 6574 6673 12
a 6574 6421 22
a 6574 6617 24
a 6575 10532 5
a 6575 6604 11
a 6576 6666 7
a 6576 6403 10
a 6576 10116 15
a 6577 7322 8
a 6577 9046 8
a 6577 6480 10
a 6578 10634 3
a 6578 6500 11
a 6578 6507 8
a 6579 10526 6
a 6579 10526 16
a 6580 6700 45
a 6580 6556 11
a 6580 6888 10
a 6581 13304 1
a 6581 6453 2
a 6581 6661 8
a 6582 9159 9
a 6582 6435 8
a 6582 6707 41
a 6582 6639 9
a 6583 6481 30
a 6583 6625 7
a 6583 6405 7
a 6584 6413 18
a 6584 6387 13
a 6584 9228 7
a 6584 12721 13
a 6585 6380 8
a 6585 6555 8
a 6585 6460 23
a 6586 6683 31
a 6586 6484 7
a 6586 6731 5
a 6587 6532 15
a 6587 6607 8
a 6587 6370 11
a 6588 6705 11
a 6588 6448 11
a 6588 9190 80
a 6589 11278 24
a 6589 6611 8
a 6589 6627 14
a 6590 4171 8
a 6590 9150 19
a 6590 4163 28
a 6591 6671 14
a 6591 13501 6
a 6591 6514 11
a 6592 6539 12
a 6592 6701 7
a 6592 6409 12
a 6593 6383 19
a 6593 6650 14
a 6593 6719 9
a 6594 6609 7
a 6594 6658 8
a 6594 6537 41
a 6595 6461 5
a 6595 9077 3
a 6595 9140 32
a 6596 6428 5
a 6596 6614 7
a 6596 6610 11
a 6597 6622 13
a 6597 6635 9
a 6597 6504 34
a 6598 11236 52
a 6598 9181 5
a 6598 6689 47
a 6598 6473 13
a 6599 6720 4
a 6599 12158 1
a 6599 6566 19
a 6600 11167 13
a 6600 5127 4
a 6600 11170 28
a 6600 6730 15
a 6601 6463 13
a 6601 6503 11
a 6601 6401 46
a 6602 6719 16
a 6602 6735 25
a 6602 6650 9
a 6603 6693 11
a 6603 9169 26
a 6603 6505 15
a 6603 9161 22
a 6604 13343 1
a 6604 9422 45
a 6604 6575 11
a 6605 6636 8
a 6605 6543 3
a 6605 10744 8
a 6606 6417 28
a 6607 6587 8
a 6607 6556 51
a 6607 6554 8
a 6608 6476 6
a 6608 6455 35
a 6608 6688 6
a 6609 6708 7
a 6609 6594 7
a 6609 6537 33
a 6610 6681 7
a 6610 6734 4
a 6610 6596 11
a 6611 6369 8
a 6611 6589 8
a 6611 6691 27
a 6612 9075 9
a 6612 6420 8
a 6612 6675 24
a 6613 10628 12
a 6613 6546 11
a 6613 6491 26
a 6614 6596 7
a 6614 6681 15
a 6614 6869 6
a 6615 6702 53
a 6615 4159 13
a 6615 9460 6
a 6616 10113 14
a 6616 6534 3
a 6616 11782 5
a 6617 6417 6
a 6617 6574 24
a 6617 6693 16
a 6617 6715 7
a 6618 6678 55
a 6618 62 15
a 6618 8906 9
a 6619 9144 18
a 6619 6722 67
a 6620 11276 2
a 6620 6497 18
a 6620 10664 10
a 6621 6379 8
a 6621 10671 11
a 6621 9195 26
a 6622 6597 13
a 6623 9321 1
a 6623 9048 26
a 6623 6699 8
a 6624 6459 6
a 6625 6385 11
a 6625 6583 7
a 6625 6511 7
a 6626 6668 14
a 6626 9050 10
a 6626 10661 24
a 6627 6554 9
a 6627 6589 14
a 6627 6391 54
a 6627 11278 29
a 6628 6495 7
a 6628 6444 6
a 6628 9323 38
a 6629 9174 9
a 6629 12693 7
a 6629 6716 11
a 6630 6495 7
a 6630 6723 13
a 6631 6634 21
a 6632 6695 3
a 6632 6552 12
a 6632 6474 17
a 6633 6381 7
a 6633 6408 7
a 6634 6525 7
a 6634 6635 10
a 6634 10738 14
a 6634 6631 21
a 6635 6634 10
a 6635 6726 19
a 6635 6597 9
a 6636 6605 8
a 6637 6651 24
a 6637 6651 18
a 6637 9323 5
a 6638 13332 1
a 6638 12698 14
a 6638 8467 10
a 6639 6457 6
a 6639 10696 20
a 6639 6582 9
a 6640 6448 13
a 6640 62 10
a 6640 13620 34
a 6641 9226 5
a 6641 8438 2
a 6642 6451 6
a 6642 6392 12
a 6642 7071 12
a 6643 6559 11
a 6643 6529 3
a 6643 6366 9
a 6644 6720 12
a 6645 6700 8
a 6645 10624 11
a 6645 4179 9
a 6645 6888 42
a 6646 7320 5
a 6647 9230 4
a 6647 10117 5
a 6647 6522 12
a 6648 11019 1
a 6648 5126 18
a 6648 9426 4
a 6649 59 12
a 6649 6521 10
a 6649 9173 11
a 6649 9163 19
a 6650 6593 14
a 6650 6735 17
a 6650 6602 9
a 6650 11623 10
a 6651 6475 7
a 6651 6637 24
a 6651 6637 18
a 6652 13532 3
a 6652 6397 11
a 6653 8906 30
a 6653 9025 30
a 6653 6557 13
a 6654 6364 11
a 6654 6531 18
a 6654 8398 2
a 6655 6368 19
a 6655 6436 25
a 6656 7369 8
a 6656 6676 10
a 6656 6507 10
a 6656 6500 10
a 6657 6435 9
a 6657 6458 8
a 6657 6407 17
a 6658 6594 8
a 6658 6513 46
a 6658 6526 30
a 6659 7324 20
a 6659 6404 8
a 6659 6411 10
a 6659 6415 11
a 6660 6485 11
a 6660 10546 21
a 6660 6545 56
a 6661 6664 7
a 6661 13305 1
a 6661 6581 8
a 6662 6477 11
a 6662 6524 43
a 6662 4980 12
a 6663 6719 15
a 6663 6383 12
a 6663 9047 10
a 6664 6661 7
a 6664 13303 1
a 6664 13301 3
a 6665 11887 14
a 6665 6529 56
a 6665 6696 8
a 6666 6576 7
a 6666 6522 17
a 6666 12695 25
a 6667 6387 12
a 6668 6672 9
a 6668 6398 18
a 6668 6626 14
a 6669 6565 28
a 6669 6565 37
a 6669 6470 7
a 6669 6498 33
a 6670 6377 8
a 6670 6365 9
a 6670 6507 22
a 6670 6442 23
a 6671 6691 9
a 6671 6528 6
a 6671 6591 14
a 6672 6668 9
a 6672 6692 20
a 6672 10662 22
a 6673 9169 12
a 6673 6574 12
a 6673 6698 26
a 6673 6693 31
a 6674 6412 14
a 6675 6612 24
a 6676 6656 10
a 6676 6447 6
a 6676 6487 25
a 6677 6527 3
a 6678 6449 8
a 6678 6618 55
a 6678 8906 58
a 6679 6405 30
a 6679 6481 7
a 6679 6513 38
a 6680 12950 1
a 6680 6494 8
a 6680 6465 24
a 6681 6614 15
a 6681 6610 7
a 6681 12307 6
a 6682 6400 25
a 6682 6570 12
a 6682 10708 19
a 6683 6390 6
a 6683 6586 31
a 6683 12161 39
a 6684 11571 5
a 6684 11787 2
a 6684 9134 25
a 6685 6571 12
a 6685 6489 14
a 6685 6416 7
a 6686 9144 2
a 6686 6619 18
a 6687 6403 13
a 6687 10114 5
a 6687 10116 5
a 6688 12805 5
a 6688 6608 6
a 6688 6569 34
a 6689 6696 12
a 6689 6694 12
a 6689 6598 47
a 6690 6441 19
a 6690 10720 13
a 6690 6396 10
a 6690 6718 9
a 6691 6671 9
a 6691 11278 7
a 6691 6611 27
a 6692 6398 9
a 6692 6672 20
a 6692 6735 24
a 6693 6603 11
a 6693 6673 31
a 6693 6617 16
a 6694 9135 18
a 6694 6423 11
a 6694 6689 12
a 6695 6632 3
a 6696 6689 12
a 6696 11236 15
a 6696 6559 38
a 6696 6665 8
a 6697 13501 1
a 6697 10632 11
a 6697 7369 23
a 6698 6421 11
a 6698 6673 26
a 6698 9169 26
a 6699 6740 12
a 6699 6380 19
a 6699 6623 8
a 6700 12939 2
a 6700 6645 8
a 6700 6580 45
a 6700 10624 21
a 6701 6419 7
a 6701 6541 5
a 6701 6592 7
a 6702 6558 6
a 6702 9193 1
a 6702 6615 53
a 6703 6432 7
a 6703 6432 39
a 6703 6454 31
a 6704 9282 46
a 6704 6540 12
a 6704 6459 50
a 6705 6588 11
a 6705 6519 24
a 6705 6422 24
a 6706 6473 48
a 6706 6509 7
a 6706 10666 8
a 6706 11236 19
a 6707 6582 41
a 6708 6609 7
a 6708 6562 37
a 6708 6537 39
a 6709 6633 13
a 6709 6434 15
a 6710 6529 21
a 6710 6441 9
a 6710 6396 22
a 6710 9344 19
a 6711 6364 11
a 6711 9339 10
a 6711 8392 19
a 6711 11467 10
a 6712 6557 10
a 6713 12707 3
a 6714 12343 13
a 6714 6471 23
a 6714 10113 11
a 6715 6450 34
a 6715 6429 11
a 6715 6617 7
a 6716 6629 11
a 6716 6429 42
a 6716 6450 10
a 6717 6454 9
a 6717 6506 58
a 6717 7367 28
a 6718 6690 9
a 6718 12631 17
a 6718 6551 9
a 6719 6602 16
a 6719 6663 15
a 6719 6593 9
a 6720 6644 12
a 6720 6599 4
a 6720 6367 4
a 6721 6385 8
a 6721 6424 11
a 6721 6511 42
a 6722 6446 10
a 6722 6478 58
a 6722 6619 67
a 6723 6444 11
a 6723 6436 8
a 6723 6630 13
a 6724 6434 12
a 6725 6388 8
a 6725 10635 5
a 6725 6402 15
a 6725 12697 23
a 6726 6635 19
a 6727 9312 19
a 6727 10117 5
a 6727 9313 7
a 6728 11469 25
a 6728 6389 43
a 6728 6545 26
a 6729 6432 7
a 6729 6739 9
a 6729 6506 23
a 6730 6378 5
a 6730 9427 25
a 6730 6493 22
a 6730 6600 15
a 6731 12161 2
a 6731 6512 8
a 6731 6586 5
a 6732 10710 7
a 6733 6378 12
a 6734 6610 4
a 6734 6515 10
a 6734 6428 8
a 6735 6602 25
a 6735 6692 24
a 6735 6650 17
a 6736 6553 7
a 6736 6430 25
a 6736 4164 3
a 6737 9000 7
a 6737 9075 8
a 6737 10625 32
a 6738 6452 10
a 6739 6729 9
a 6739 11518 9
a 6739 6409 27
a 6740 6699 12
a 6740 6480 11
a 6740 6411 29
a 6741 3174 8
a 6741 8437 1
a 6742 9340 21
a 6742 6756 13
a 6742 12711 19
a 6743 6755 8
a 6743 8437 4
a 6743 6744 18
a 6744 8425 5
a 6744 6745 19
a 6744 6743 18
a 6745 8428 5
a 6745 6750 11
a 6745 6746 6
a 6745 6744 19
a 6746 6745 6
a 6747 6749 8
a 6748 6749 8
a 6749 6748 8
a 6749 11243 11
a 6749 6747 8
a 6750 6745 11
a 6750 11243 1
a 6750 6751 5
a 6751 6750 5
a 6752 6753 6
a 6752 6509 15
a 6752 6761 16
a 6753 6754 14
a 6753 6752 6
a 6753 6763 13
a 6754 9316 16
a 6754 6757 6
a 6754 6753 14
a 6755 8406 1
a 6755 6743 8
a 6755 7067 35
a 6756 8406 4
a 6756 6742 13
a 6756 7068 34
a 6757 8393 3
a 6757 6754 6
a 6757 6758 44
a 6758 11798 11
a 6758 9340 35
a 6758 6757 44
a 6759 6760 8
a 6760 6759 8
a 6760 12116 4
a 6760 9339 18
a 6761 10668 4
a 6761 6752 16
a 6761 6762 7
a 6762 6761 7
a 6763 6753 13
a 6764 6367 6
a 6764 12708 1
a 6764 9131 24
a 6765 12789 4
a 6765 10609 46
a 6765 10605 33
a 6766 6778 6
a 6766 9267 4
a 6766 8385 8
a 6767 9263 2
a 6767 12794 4
a 6767 9906 22
a 6767 6770 7
a 6768 12790 1
a 6768 12794 2
a 6768 9264 6
a 6769 12790 14
a 6769 11700 10
a 6769 6775 11
a 6769 9268 10
a 6770 12305 3
a 6770 6776 10
a 6770 6767 7
a 6771 6778 5
a 6771 6774 5
a 6771 7683 27
a 6771 6772 25
a 6772 6773 4
a 6772 6771 25
a 6772 6777 20
a 6773 6772 4
a 6773 6774 24
a 6773 6776 6
a 6774 6771 5
a 6774 6775 3
a 6774 6773 24
a 6775 6774 3
a 6775 6776 22
a 6775 6769 11
a 6776 6775 22
a 6776 6773 6
a 6776 6770 10
a 6777 8388 9
a 6777 11725 11
a 6777 6772 20
a 6778 6766 6
a 6778 6771 5
a 6778 8386 9
a 6779 5050 7
a 6779 6780 28
a 6779 148 1
a 6780 10613 6
a 6780 6782 39
a 6780 6779 28
a 6781 10616 10
a 6781 10610 2
a 6781 9331 19
a 6782 6780 39
a 6782 9748 20
a 6782 6793 21
a 6783 6784 16
a 6783 3541 35
a 6783 3597 16
a 6784 6785 16
a 6784 6783 16
a 6784 3565 34
a 6784 5015 25
a 6785 6784 16
a 6785 11999 1
a 6785 5050 36
a 6786 8789 8
a 6786 11999 17
a 6786 8790 10
a 6787 6789 11
a 6787 11999 4
a 6787 8789 19
a 6788 3556 5
a 6788 9748 3
a 6788 8789 14
a 6789 6787 11
a 6789 3559 17
a 6790 10775 3
a 6790 12068 14
a 6790 6792 8
a 6791 10698 5
a 6791 6792 12
a 6791 9082 18
a 6792 8147 9
a 6792 6791 12
a 6792 6790 8
a 6793 11510 11
a 6793 7758 4
a 6793 6782 21
a 6794 7758 3
a 6794 6795 4
a 6795 9245 8
a 6795 6802 19
a 6796 9921 8
a 6796 11130 11
a 6796 8548 27
a 6796 11606 14
a 6797 7681 12
a 6798 13488 2
a 6798 9837 11
a 6798 10707 6
a 6799 11703 3
a 6799 8444 5
a 6799 9836 4
a 6800 10764 7
a 6800 10699 4
a 6800 9920 8
a 6801 8444 4
a 6801 8442 9
a 6801 9925 25
a 6802 9256 8
a 6802 6795 19
a 6802 6811 22
a 6803 6806 2
a 6803 9242 13
a 6804 9243 4
a 6804 9910 5
a 6804 11448 5
a 6804 9247 7
a 6805 9910 3
a 6805 6807 34
a 6805 9246 9
a 6805 6814 8
a 6806 9238 11
a 6806 11330 9
a 6807 6813 15
a 6807 9915 6
a 6807 6805 34
a 6808 6809 8
a 6808 6814 5
a 6808 11418 13
a 6809 9902 5
a 6809 6808 8
a 6809 9903 9
a 6810 9244 6
a 6810 6803 5
a 6811 9250 2
a 6811 9252 7
a 6811 6802 22
a 6812 9252 6
a 6812 9904 13
a 6812 8548 24
a 6812 9251 11
a 6813 6807 15
a 6813 10764 7
a 6813 9916 13
a 6814 9902 7
a 6814 6808 5
a 6814 6805 8
a 6814 9915 27
a 6815 1223 9
a 6815 6843 4
a 6815 11573 6
a 6816 9897 5
a 6816 8147 17
a 6817 6828 3
a 6817 6820 8
a 6818 6827 34
a 6818 6820 7
a 6818 6826 28
a 6819 6826 8
a 6819 6823 7
a 6819 6827 13
a 6820 6818 7
a 6820 6825 29
a 6821 6830 14
a 6822 6824 8
a 6822 6823 16
a 6823 6819 7
a 6823 6833 8
a 6823 6822 16
a 6824 6831 4
a 6824 6825 16
a 6825 6826 7
a 6825 6824 16
a 6825 6823 9
a 6826 6819 8
a 6826 6827 6
a 6826 6825 7
a 6826 6818 28
a 6827 6826 6
a 6827 6819 13
a 6827 6818 34
a 6828 10773 17
a 6828 6817 3
a 6828 6829 9
a 6829 8405 3
a 6829 9900 14
a 6829 6828 9
a 6830 6821 14
a 6830 6840 15
a 6830 9898 10
a 6830 6831 9
a 6831 6829 22
a 6831 6830 9
a 6832 6833 8
a 6833 6832 8
a 6833 6836 8
a 6833 6834 15
a 6834 6839 4
a 6834 6833 15
a 6835 6834 9
a 6835 6836 15
a 6836 6837 8
a 6836 6835 15
a 6837 10774 7
a 6837 6838 14
a 6838 6835 8
a 6838 6837 14
a 6839 6822 4
a 6839 6840 8
a 6840 6830 15
a 6840 8147 19
a 6840 6839 8
a 6841 12078 3
a 6841 9070 6
a 6842 11839 8
a 6842 11573 6
a 6842 11575 7
a 6843 10780 3
a 6843 6815 4
a 6843 9899 9
a 6844 6847 12
a 6844 11841 3
a 6844 10777 7
a 6844 9899 19
a 6845 1222 23
a 6845 6850 12
a 6845 9894 13
a 6845 13009 11
a 6846 9894 2
a 6846 9895 5
a 6846 10779 8
a 6847 6844 12
a 6848 10777 3
a 6848 6849 13
a 6848 11754 12
a 6849 9893 2
a 6849 8391 17
a 6849 6848 13
a 6850 6845 12
a 6850 12025 9
a 6850 9893 8
a 6851 13009 4
a 6851 13504 4
a 6851 6852 6
a 6852 6851 6
a 6853 12499 34
a 6854 8400 5
a 6855 8391 2
a 6855 8389 4
a 6855 11458 14
a 6856 6857 2
a 6857 11679 3
a 6857 6856 2
a 6857 1224 19
a 6858 8985 9
a 6858 3389 5
a 6858 8984 4
a 6859 8986 10
a 6860 8985 7
a 6860 6861 5
a 6860 6862 5
a 6861 6860 5
a 6861 8987 7
a 6861 3360 20
a 6862 6860 5
a 6862 11717 4
a 6862 8983 7
a 6863 4425 25
a 6863 13296 12
a 6863 4542 11
a 6864 4425 13
a 6864 9326 26
a 6864 6866 12
a 6865 13296 1
a 6865 9327 7
a 6865 6867 13
a 6866 6864 12
a 6866 10795 13
a 6866 6868 11
a 6867 10808 5
a 6867 6868 28
a 6867 6865 13
a 6868 6867 28
a 6868 6866 11
a 6868 10795 7
a 6868 11585 24
a 6869 6614 6
a 6869 6476 5
a 6869 9026 11
a 6870 6875 7
a 6870 6871 16
a 6870 9026 7
a 6871 6872 5
a 6871 6870 16
a 6871 11806 7
a 6872 12571 4
a 6872 6871 5
a 6872 6873 9
a 6873 6455 6
a 6873 11403 24
a 6873 9322 6
a 6873 6872 9
a 6874 9322 15
a 6874 9027 6
a 6874 6875 6
a 6875 6870 7
a 6875 6874 6
a 6875 9322 20
a 6876 6492 77
a 6877 1878 10
a 6878 6094 10
a 6878 6110 5
a 6878 6104 6
a 6878 6106 27
a 6879 6112 6
a 6879 6113 5
a 6879 6111 23
a 6879 6093 7
a 6880 12039 16
a 6880 2162 21
a 6881 6984 2
a 6881 9349 2
a 6881 4774 4
a 6882 1908 9
a 6882 7290 13
a 6883 4434 6
a 6883 9333 4
a 6883 4412 11
a 6884 6412 12
a 6884 6412 27
a 6884 6504 8
a 6885 5332 14
a 6885 5326 6
a 6886 6176 6
a 6886 5477 54
a 6886 5680 15
a 6886 5569 10
a 6887 5552 3
a 6887 5465 10
a 6887 5454 6
a 6887 10192 13
a 6888 4180 8
a 6888 6580 10
a 6888 6645 42
a 6889 7332 8
a 6890 9351 3
a 6890 822 13
a 6891 8738 2
a 6891 4635 58
a 6892 8735 1
a 6893 4146 8
a 6893 6894 11
a 6893 8711 11
a 6894 12987 1
a 6894 6893 11
a 6894 8534 12
a 6896 6897 6
a 6896 6901 6
a 6896 6901 27
a 6897 6900 7
a 6897 6900 26
a 6897 6900 29
a 6897 6896 6
a 6898 6903 7
a 6898 6899 20
a 6898 6899 8
a 6899 6898 8
a 6899 6898 20
a 6899 7380 6
a 6900 6897 7
a 6900 6897 26
a 6900 6897 29
a 6900 7380 6
a 6901 6896 6
a 6901 6896 27
a 6901 12952 2
a 6902 10651 13
a 6902 10654 6
a 6902 10649 5
a 6903 7377 6
a 6903 7377 25
a 6903 6898 7
a 6904 10651 7
a 6904 10648 6
a 6904 7376 10
a 6904 10650 17
a 6905 12976 4
a 6905 12974 1
a 6905 9407 54
a 6906 10051 2
a 6906 5342 18
a 6906 6929 9
a 6907 7239 12
a 6908 10051 10
a 6908 10050 13
a 6908 7239 42
a 6910 2351 8
a 6910 9407 7
a 6910 2347 51
a 6911 6912 6
a 6912 6911 6
a 6912 12973 1
a 6912 2354 19
a 6912 6926 7
a 6913 2354 6
a 6914 11630 16
a 6914 3154 17
a 6915 4152 3
a 6915 4838 18
a 6916 10092 1
a 6917 6918 1
a 6917 6916 20
a 6918 10941 1
a 6918 12458 2
a 6919 10941 3
a 6919 6957 9
a 6920 9931 2
a 6920 6952 6
a 6921 9677 1
a 6921 3180 20
a 6921 11311 5
a 6922 8914 34
a 6922 8521 7
a 6923 9604 14
a 6924 9576 1
a 6925 9499 12
a 6926 9407 5
a 6926 7886 3
a 6926 6912 7
a 6927 4528 11
a 6927 12048 3
a 6927 9406 37
a 6927 4372 11
a 6928 7887 3
a 6928 6946 6
a 6928 2354 8
a 6929 7235 9
a 6929 6930 16
a 6929 6906 9
a 6930 6929 16
a 6930 6931 20
a 6930 3521 23
a 6931 8760 6
a 6931 6932 5
a 6931 6930 20
a 6932 7421 5
a 6932 6931 5
a 6932 11854 23
a 6933 6938 9
a 6933 4808 36
a 6933 6943 8
a 6934 7423 2
a 6934 11687 15
a 6934 6942 3
a 6935 7423 3
a 6935 6942 3
a 6935 7187 43
a 6936 6943 2
a 6936 8441 6
a 6936 8764 7
a 6937 8768 2
a 6937 4801 10
a 6937 8765 26
a 6938 6933 9
a 6938 9320 5
a 6938 7421 38
a 6939 6940 14
a 6939 6940 42
a 6940 8441 2
a 6940 6939 42
a 6940 6943 6
a 6941 7611 6
a 6941 7187 2
a 6941 6942 40
a 6942 6941 40
a 6942 6941 15
a 6942 6935 3
a 6943 6936 2
a 6943 7499 25
a 6943 6933 8
a 6944 8090 4
a 6945 7356 53
a 6946 8836 5
a 6946 8714 2
a 6946 6928 6
a 6947 8784 7
a 6947 9505 13
a 6947 13295 12
a 6947 8940 7
a 6948 8941 13
a 6948 9521 17
a 6948 9513 4
a 6949 168 4
a 6949 6950 12
a 6950 6951 2
a 6951 7754 1
a 6951 9373 4
a 6952 9655 5
a 6953 11987 8
a 6954 2452 13
a 6955 8549 1
a 6955 6983 11
a 6956 9671 18
a 6957 9676 2
a 6958 10942 5
a 6958 6925 11
a 6958 12459 10
a 6959 9931 1
a 6959 6917 2
a 6960 13575 131
a 6961 7751 2
a 6962 7596 7
a 6962 7596 7
a 6963 1914 2
a 6963 1886 6
a 6964 6965 4
a 6965 7291 21
a 6965 6964 4
a 6966 6969 25
a 6967 4305 18
a 6968 6970 3
a 6969 6968 5
a 6970 58 10
a 6971 8737 17
a 6971 7632 9
a 6971 4727 26
a 6971 4741 57
a 6972 6993 10
a 6972 4776 2
a 6973 4778 24
a 6973 13086 1
a 6974 2441 90
a 6975 6983 1
a 6975 6955 12
a 6976 1921 13
a 6977 35 6
a 6977 1917 22
a 6978 1924 10
a 6978 1931 13
a 6978 1930 59
a 6979 12449 1
a 6979 3159 24
a 6979 11803 9
a 6980 11803 1
a 6980 12539 5
a 6980 2962 8
a 6981 12218 2
a 6981 2962 3
a 6981 12176 8
a 6982 10060 4
a 6982 7573 19
a 6982 7576 22
a 6982 9878 10
a 6983 9348 9
a 6984 7000 10
a 6985 6881 3
a 6985 4774 7
a 6987 8085 8
a 6988 10241 3
a 6988 8087 4
a 6989 7841 4
a 6990 6991 1
a 6990 7303 8
a 6991 6992 5
a 6992 6993 1
a 6992 4776 10
a 6993 6992 1
a 6993 6990 5
a 6994 2356 8
a 6994 9944 7
a 6994 12986 2
a 6995 5026 14
a 6995 4150 6
a 6995 6996 51
a 6996 4332 12
a 6996 13280 10
a 6996 6995 51
a 6997 41 2
a 6997 10824 39
a 6997 11973 4
a 6998 25 5
a 6998 728 13
a 6999 10111 3
a 7000 6882 21
a 7000 7001 2
a 7001 7000 2
a 7001 9349 12
a 7002 7004 7
a 7002 6273 31
a 7002 7003 20
a 7003 6274 6
a 7003 7002 20
a 7003 7005 7
a 7004 7002 7
a 7004 10254 7
a 7004 7005 19
a 7005 7006 7
a 7005 7004 19
a 7005 7003 7
a 7006 6275 7
a 7006 7005 7
a 7006 10254 17
a 7007 5409 16
a 7007 5409 31
a 7007 8333 10
a 7008 12267 46
a 7008 5408 17
a 7009 10517 5
a 7009 4492 8
a 7009 10797 8
a 7010 12729 2
a 7010 7011 12
a 7010 10519 30
a 7011 10519 5
a 7011 7012 6
a 7011 10517 6
a 7011 7010 12
a 7012 7011 6
a 7012 2527 17
a 7012 4525 31
a 7013 2349 13
a 7013 2345 54
a 7013 2351 13
a 7014 815 4
a 7014 835 48
a 7014 4809 12
a 7015 8142 60
a 7015 7273 11
a 7016 7021 24
a 7016 7042 9
a 7016 7045 13
a 7017 9808 18
a 7017 7041 9
a 7017 892 33
a 7018 1805 16
a 7018 2592 10
a 7018 2588 8
a 7019 7025 13
a 7019 7035 21
a 7019 7033 24
a 7020 7030 4
a 7020 2248 6
a 7020 7039 15
a 7021 1801 6
a 7021 1800 9
a 7021 7016 24
a 7022 9658 10
a 7022 7024 8
a 7022 9659 20
a 7023 7042 9
a 7023 7040 4
a 7024 2630 9
a 7024 7022 8
a 7024 9659 13
a 7024 8516 32
a 7025 2776 10
a 7025 2104 29
a 7025 7019 13
a 7026 7038 8
a 7026 7039 12
a 7026 2248 20
a 7027 2107 16
a 7027 9666 34
a 7028 2870 25
a 7028 3168 9
a 7028 11128 9
a 7029 2105 9
a 7029 11978 32
a 7030 2255 8
a 7030 7020 4
a 7030 7039 14
a 7031 7041 9
a 7031 2105 16
a 7031 886 10
a 7031 7044 16
a 7032 4327 14
a 7032 4328 13
a 7032 4312 12
a 7033 2106 9
a 7033 7035 9
a 7033 7019 24
a 7034 2105 23
a 7034 2106 9
a 7034 7044 16
a 7035 7033 9
a 7035 2104 10
a 7035 7019 21
a 7036 8516 24
a 7036 9659 33
a 7037 1800 4
a 7037 7023 30
a 7038 2254 13
a 7038 2262 13
a 7038 7026 8
a 7039 7020 15
a 7039 7030 14
a 7039 7026 12
a 7040 2098 26
a 7040 7023 4
a 7040 8993 9
a 7041 7017 9
a 7041 7031 9
a 7041 889 24
a 7042 7023 9
a 7042 7016 9
a 7042 7037 23
a 7043 2737 11
a 7043 3874 45
a 7043 2741 45
a 7044 7034 16
a 7044 7031 16
a 7044 858 6
a 7045 7016 13
a 7045 2098 9
a 7045 2096 18
a 7046 2285 13
a 7046 2283 14
a 7046 13186 19
a 7047 7048 36
a 7047 9455 10
a 7048 12757 1
a 7048 7047 36
a 7048 9597 76
a 7049 7053 7
a 7049 4138 8
a 7049 7052 13
a 7050 7051 9
a 7050 11217 11
a 7050 4139 9
a 7051 7050 9
a 7051 7052 10
a 7051 11217 6
a 7052 7051 10
a 7052 7053 7
a 7052 7049 13
a 7053 7049 7
a 7053 12645 1
a 7053 7052 7
a 7054 9611 4
a 7054 5323 16
a 7054 7343 14
a 7055 2617 13
a 7055 7056 10
a 7056 2619 11
a 7057 7059 16
a 7057 11058 2
a 7058 2620 17
a 7058 7059 29
a 7058 2621 12
a 7059 7057 16
a 7059 7058 29
a 7059 7060 11
a 7060 7055 15
a 7060 7059 11
a 7061 7062 11
a 7061 12301 2
a 7061 12605 1
a 7061 2147 10
a 7062 2151 3
a 7062 7061 11
a 7062 2148 34
a 7063 10288 22
a 7063 3857 7
a 7064 13200 1
a 7064 3857 5
a 7064 12088 14
a 7065 10280 1
a 7065 4307 24
a 7065 7390 3
a 7066 4511 2
a 7066 4542 21
a 7066 9327 77
a 7067 7068 6
a 7067 8435 11
a 7067 6755 35
a 7068 7069 12
a 7068 7067 6
a 7068 6756 34
a 7069 9274 6
a 7069 7068 12
a 7069 10772 23
a 7070 9276 1
a 7070 9274 3
a 7070 12711 19
a 7071 7072 9
a 7071 6642 12
a 7071 12938 27
a 7072 6465 11
a 7072 6430 10
a 7072 7071 9
a 7072 6553 14
a 7073 7074 7
a 7074 7073 7
a 7074 5008 15
a 7074 7075 17
a 7075 5008 31
a 7075 6410 12
a 7075 7074 17
a 7076 6372 5
a 7076 7077 32
a 7076 7081 5
a 7076 10658 23
a 7077 7076 32
a 7077 7078 7
a 7077 10660 7
a 7078 7077 7
a 7078 8459 9
a 7078 7081 25
a 7079 6393 5
a 7079 7083 5
a 7079 7080 11
a 7079 7084 13
a 7080 7079 11
a 7081 7083 10
a 7081 7076 5
a 7081 7078 25
a 7081 7082 16
a 7082 7081 16
a 7083 7079 5
a 7083 7085 10
a 7083 7081 10
a 7083 7084 13
a 7084 8459 3
a 7084 7083 13
a 7084 7079 13
a 7085 7083 10
a 7086 9291 8
a 7086 7087 8
a 7086 7088 34
a 7087 7086 8
a 7087 9081 6
a 7087 7089 38
a 7088 6415 5
a 7088 7089 5
a 7088 7086 34
a 7089 6372 5
a 7089 7088 5
a 7089 7087 38
a 7090 6393 5
a 7091 8468 21
a 7091 6393 19
a 7091 8477 56
a 7092 11268 1
a 7092 8330 3
a 7092 11267 26
a 7093 7561 2
a 7093 6373 32
a 7093 3712 9
a 7093 11927 1
a 7094 3781 9
a 7094 9111 30
a 7094 9747 21
a 7095 7096 26
a 7095 12416 12
a 7095 13195 2
a 7096 7097 5
a 7096 7095 26
a 7096 7098 8
a 7097 7096 5
a 7097 13191 2
a 7097 7316 31
a 7098 7096 8
a 7098 7828 23
a 7098 7828 28
a 7099 7100 45
a 7099 1750 21
a 7099 1761 13
a 7100 7099 45
a 7100 1761 56
a 7100 1769 13
a 7101 2420 75
a 7101 7102 13
a 7101 2419 11
a 7102 2421 58
a 7102 2425 92
a 7102 7101 13
a 7103 3031 15
a 7104 8180 9
a 7105 5397 7
a 7105 2078 25
a 7105 8180 12
a 7106 9930 2
a 7106 10940 5
a 7107 1322 89
a 7107 4358 15
a 7108 1307 10
a 7108 1309 8
a 7108 1311 18
a 7109 7172 29
a 7109 5917 7
a 7109 8323 4
a 7110 9459 81
a 7110 10441 5
a 7110 7564 6
a 7111 411 6
a 7111 11049 1
a 7112 7151 6
a 7112 7150 5
a 7112 7114 9
a 7113 7120 5
a 7113 7115 29
a 7113 7135 5
a 7114 7112 9
a 7114 7152 9
a 7114 7122 6
a 7115 7113 29
a 7115 7131 5
a 7115 7134 5
a 7116 7120 5
a 7116 7117 15
a 7116 7119 18
a 7117 7119 5
a 7117 7121 5
a 7117 7116 15
a 7117 7118 27
a 7118 7122 5
a 7118 7117 27
a 7118 7119 28
a 7119 7117 5
a 7119 7118 28
a 7119 6326 3
a 7119 7116 18
a 7120 7116 5
a 7120 7113 5
a 7120 7121 16
a 7121 7117 5
a 7121 11894 6
a 7121 7120 16
a 7121 7122 30
a 7122 7118 5
a 7122 7121 30
a 7122 7114 6
a 7123 7146 5
a 7123 11894 3
a 7123 7139 7
a 7124 7144 5
a 7124 7145 5
a 7124 7125 25
a 7125 7124 25
a 7125 7128 5
a 7125 7129 4
a 7126 7154 6
a 7126 10410 5
a 7126 7149 5
a 7126 7127 11
a 7127 10409 6
a 7127 7126 11
a 7127 7153 8
a 7128 7125 5
a 7128 7144 24
a 7128 7142 6
a 7129 7136 6
a 7129 7125 4
a 7129 7130 5
a 7130 7131 13
a 7130 7129 5
a 7130 7132 6
a 7131 7115 5
a 7131 7133 5
a 7131 7130 13
a 7132 7133 11
a 7132 7133 18
a 7132 7130 6
a 7133 7131 5
a 7133 7132 11
a 7133 7132 18
a 7134 7115 5
a 7134 7136 5
a 7134 7135 31
a 7135 7137 5
a 7135 7113 5
a 7135 7134 31
a 7136 7134 5
a 7136 7129 6
a 7136 7137 34
a 7137 11895 5
a 7137 7135 5
a 7137 7136 34
a 7138 11895 11
a 7138 7140 7
a 7138 7139 12
a 7139 7141 5
a 7139 7123 7
a 7139 7138 12
a 7140 7138 7
a 7140 7142 6
a 7140 7141 17
a 7141 7143 5
a 7141 7139 5
a 7141 7140 17
a 7142 7140 6
a 7142 7143 21
a 7142 7128 6
a 7143 7144 5
a 7143 7141 5
a 7143 7142 21
a 7144 7124 5
a 7144 7143 5
a 7144 7128 24
a 7145 7148 5
a 7145 7124 5
a 7145 7146 24
a 7146 7147 5
a 7146 7123 5
a 7146 7145 24
a 7147 7150 5
a 7147 7146 5
a 7147 7148 22
a 7148 7149 5
a 7148 7145 5
a 7148 7147 22
a 7149 7126 5
a 7149 7148 5
a 7149 7150 20
a 7150 7112 5
a 7150 7147 5
a 7150 7149 20
a 7151 7112 6
a 7151 7154 7
a 7151 7152 9
a 7152 7151 9
a 7152 7153 6
a 7152 7114 9
a 7153 7152 6
a 7153 7154 9
a 7153 7127 8
a 7154 7151 7
a 7154 7126 6
a 7154 7153 9
a 7155 7156 11
a 7156 7157 23
a 7156 411 5
a 7156 7155 11
a 7157 12366 2
a 7157 6355 6
a 7157 7156 23
a 7158 6343 29
a 7159 6347 11
a 7159 6348 20
a 7159 11584 28
a 7160 692 63
a 7161 8074 14
a 7161 548 3
a 7161 7163 8
a 7162 8080 21
a 7162 7163 7
a 7163 7162 7
a 7163 7161 8
a 7163 8075 21
a 7164 1243 8
a 7164 8075 22
a 7164 1244 8
a 7165 13036 2
a 7165 7166 11
a 7166 7167 23
a 7166 543 34
a 7167 547 17
a 7167 7166 23
a 7167 7168 11
a 7168 13037 2
a 7168 7165 16
a 7169 546 15
a 7169 1248 12
a 7170 11568 1
a 7170 7269 34
a 7170 10830 2
a 7171 5889 8
a 7171 9767 48
a 7171 10834 14
a 7172 5895 12
a 7172 7109 29
a 7172 5896 10
a 7173 5908 16
a 7173 5919 6
a 7173 5888 8
a 7174 9774 3
a 7175 4196 17
a 7175 11499 2
a 7175 9778 16
a 7176 10845 15
a 7176 5881 70
a 7176 7177 18
a 7177 7179 10
a 7177 7178 25
a 7177 7176 18
a 7178 12021 6
a 7178 7177 25
a 7178 7179 33
a 7179 7177 10
a 7179 7180 6
a 7179 7178 33
a 7180 10843 6
a 7180 7179 6
a 7180 9464 24
a 7181 7182 13
a 7181 7185 20
a 7181 13102 35
a 7182 6360 18
a 7182 7181 13
a 7182 7183 45
a 7183 7185 23
a 7183 7184 11
a 7183 7182 45
a 7184 7183 11
a 7185 7183 23
a 7185 7181 20
a 7185 8747 24
a 7186 8454 17
a 7186 2072 18
a 7186 11889 13
a 7187 6941 2
a 7187 6935 14
a 7187 6935 43
a 7188 7192 3
a 7188 10252 3
a 7188 10253 4
a 7189 7191 6
a 7189 7919 12
a 7190 7192 6
a 7190 7919 7
a 7190 7191 10
a 7191 7189 6
a 7191 10253 9
a 7191 7190 10
a 7192 7188 3
a 7192 10253 4
a 7192 7190 6
a 7193 5393 8
a 7193 8182 8
a 7193 8183 30
a 7193 5389 44
a 7194 13129 2
a 7194 4233 19
a 7194 4232 33
a 7195 7197 5
a 7195 5947 8
a 7195 5965 8
a 7196 5966 7
a 7196 5947 10
a 7196 7197 16
a 7197 7195 5
a 7197 5942 6
a 7197 7196 16
a 7198 6375 6
a 7198 12635 8
a 7198 7199 9
a 7198 7200 22
a 7199 12035 5
a 7199 7200 28
a 7199 7198 9
a 7200 7199 28
a 7200 7198 22
a 7200 11800 6
a 7201 10996 1
a 7201 12550 13
a 7202 7461 12
a 7203 8357 5
a 7204 7208 8
a 7204 5978 19
a 7204 7205 8
a 7205 3307 33
a 7205 7206 10
a 7205 7204 8
a 7206 11009 9
a 7206 7205 10
a 7206 7207 25
a 7207 8357 4
a 7207 5978 12
a 7207 7206 25
a 7208 12254 16
a 7208 7204 8
a 7208 7209 28
a 7208 4189 6
a 7209 7210 3
a 7209 7208 28
a 7209 7479 26
a 7210 869 3
a 7210 7209 3
a 7211 9783 2
a 7211 12101 4
a 7211 870 9
a 7212 7213 6
a 7212 7223 20
a 7212 7605 28
a 7213 7212 6
a 7213 7228 17
a 7213 7214 8
a 7214 7225 19
a 7214 7218 12
a 7214 7213 8
a 7215 7221 8
a 7215 7218 5
a 7215 7216 23
a 7216 7222 10
a 7216 7215 23
a 7216 7219 12
a 7217 9109 4
a 7217 7224 7
a 7218 7219 31
a 7218 7215 5
a 7218 7214 12
a 7219 7224 8
a 7219 7220 22
a 7219 7218 31
a 7219 7216 12
a 7220 7219 22
a 7220 12229 15
a 7221 7222 24
a 7221 7222 16
a 7221 7215 8
a 7222 7216 10
a 7222 7221 24
a 7222 7221 16
a 7223 13243 1
a 7223 7212 20
a 7223 7473 15
a 7224 7473 11
a 7224 7219 8
a 7224 9109 9
a 7224 7217 7
a 7225 7214 19
a 7226 7230 10
a 7226 9541 6
a 7227 7230 8
a 7228 9543 8
a 7228 7213 17
a 7228 9541 18
a 7229 9542 3
a 7229 9541 7
a 7229 9543 15
a 7230 7227 8
a 7230 7226 10
a 7231 905 21
a 7231 10001 21
a 7231 8447 26
a 7232 904 12
a 7232 8447 10
a 7232 9200 45
a 7233 2294 4
a 7234 7235 20
a 7235 7234 20
a 7235 6929 9
a 7235 7236 23
a 7236 10051 15
a 7236 5346 5
a 7236 7235 23
a 7237 3521 14
a 7237 3494 17
a 7237 7238 10
a 7238 7239 5
a 7238 3521 23
a 7238 7237 10
a 7239 7238 5
a 7239 6908 42
a 7239 6907 12
a 7240 9487 8
a 7241 1229 18
a 7242 9487 17
a 7242 1228 7
a 7242 1227 12
a 7243 527 19
a 7244 557 14
a 7244 7541 14
a 7244 7245 48
a 7245 7549 12
a 7245 7246 21
a 7246 7541 8
a 7246 7554 12
a 7246 7245 21
a 7247 1233 11
a 7247 1234 36
a 7247 1236 11
a 7248 7250 11
a 7248 2446 20
a 7248 7363 6
a 7249 7251 9
a 7250 7248 11
a 7251 1328 19
a 7251 7249 9
a 7252 1324 5
a 7252 7252 13
a 7252 7252 13
a 7253 12154 13
a 7253 1327 11
a 7253 1326 33
a 7254 13057 2
a 7254 7707 18
a 7255 7612 3
a 7255 8509 3
a 7255 2917 26
a 7256 10643 8
a 7256 7257 23
a 7256 5069 7
a 7257 7256 23
a 7257 5081 7
a 7257 5067 6
a 7258 9067 3
a 7259 7358 29
a 7259 2428 42
a 7260 1496 2
a 7260 1502 14
a 7261 897 15
a 7261 7263 38
a 7261 2049 7
a 7262 8664 2
a 7263 8317 11
a 7263 956 17
a 7263 7261 38
a 7263 925 21
a 7264 4141 19
a 7264 8634 8
a 7264 5231 24
a 7265 7509 12
a 7265 1067 4
a 7266 7525 1
a 7266 7721 34
a 7267 9304 2
a 7267 9303 6
a 7267 9299 15
a 7268 11428 2
a 7268 7597 19
a 7268 11455 33
a 7269 7603 28
a 7269 7170 34
a 7269 7600 40
a 7270 8424 7
a 7270 2429 16
a 7271 7671 7
a 7271 9074 8
a 7272 7273 11
a 7272 8140 59
a 7273 8141 59
a 7273 7272 11
a 7273 7015 11
a 7274 11203 1
a 7274 9740 19
a 7275 8609 6
a 7276 8365 23
a 7277 7278 1
a 7277 12328 2
a 7278 7279 9
a 7279 9440 9
a 7279 6986 18
a 7280 1859 3
a 7280 7281 6
a 7281 6962 3
a 7283 7280 3
a 7284 6999 12
a 7284 8967 28
a 7285 215 1
a 7285 9371 3
a 7285 241 14
a 7286 10857 2
a 7286 13365 1
a 7287 5244 15
a 7287 13421 16
a 7288 10100 2
a 7288 10098 3
a 7289 7001 37
a 7291 11080 1
a 7291 13062 4
a 7292 2011 11
a 7292 9706 20
a 7293 1826 14
a 7293 7853 13
a 7293 1828 34
a 7294 7295 2
a 7294 7317 9
a 7295 7294 2
a 7296 12228 1
a 7296 7772 3
a 7296 11144 9
a 7297 7855 5
a 7297 1014 6
a 7297 2032 29
a 7297 7854 4
a 7298 8651 17
a 7299 7301 8
a 7300 8651 2
a 7300 12450 4
a 7300 8726 2
a 7301 8727 1
a 7301 7299 8
a 7301 8651 19
a 7302 5550 7
a 7303 11955 2
a 7303 8034 11
a 7304 144 6
a 7305 1503 30
a 7305 8517 38
a 7306 1999 15
a 7306 1941 3
a 7307 12119 4
a 7308 1846 4
a 7309 1847 14
a 7309 7310 13
a 7309 1848 30
a 7310 7309 13
a 7310 7310 32
a 7310 7310 32
a 7311 7311 30
a 7311 7311 30
a 7311 1848 11
a 7312 1849 10
a 7312 7312 26
a 7312 7312 26
a 7313 1864 3
a 7314 7847 57
a 7314 9338 8
a 7315 7265 5
a 7315 7313 58
a 7316 13362 2
a 7316 7097 31
a 7316 7317 8
a 7317 7294 9
a 7317 7316 8
a 7318 7319 10
a 7319 7318 10
a 7319 7469 5
a 7319 2438 26
a 7320 7322 9
a 7320 6646 5
a 7320 10659 13
a 7321 10659 23
a 7321 7323 9
a 7321 9291 11
a 7322 6577 8
a 7322 7320 9
a 7322 7323 34
a 7323 6415 9
a 7323 7321 9
a 7323 7322 34
a 7324 9046 10
a 7324 6480 9
a 7324 6659 20
a 7325 3633 12
a 7326 9710 1
a 7326 3204 17
a 7326 10948 14
a 7326 9665 4
a 7327 9466 11
a 7327 9711 2
a 7327 10948 6
a 7328 188 2
a 7328 199 28
a 7328 7398 9
a 7329 2012 13
a 7329 7330 15
a 7329 2013 31
a 7330 7329 15
a 7330 7330 42
a 7330 7330 42
a 7331 2013 4
a 7332 9698 14
a 7332 7333 3
a 7333 7332 3
a 7334 7337 1
a 7334 8095 26
a 7335 7742 16
a 7335 420 13
a 7335 418 40
a 7336 251 3
a 7336 472 6
a 7336 3028 10
a 7336 471 50
a 7337 7334 1
a 7337 11047 40
a 7338 7339 6
a 7338 7340 14
a 7338 3935 13
a 7339 7338 6
a 7339 3089 6
a 7339 7340 20
a 7340 7338 14
a 7340 7339 20
a 7340 2994 31
a 7341 12437 18
a 7341 7342 24
a 7342 7455 4
a 7343 7054 14
a 7343 4137 16
a 7343 5323 49
a 7344 384 21
a 7344 10019 10
a 7344 13458 2
a 7345 12252 10
a 7345 10822 20
a 7346 511 19
a 7346 7768 27
a 7346 275 6
a 7346 360 32
a 7347 469 2
a 7347 12829 3
a 7348 10917 9
a 7349 3822 17
a 7349 4027 13
a 7350 8518 24
a 7350 7960 7
a 7350 7351 13
a 7351 8672 11
a 7351 7350 13
a 7351 13177 8
a 7352 2302 46
a 7352 9988 24
a 7352 8582 29
a 7353 7623 3
a 7353 12257 5
a 7353 10916 19
a 7354 12816 1
a 7354 3304 14
a 7354 12817 7
a 7355 3796 7
a 7356 6945 53
a 7356 8086 8
a 7356 8085 3
a 7357 683 3
a 7358 2906 28
a 7358 3117 7
a 7359 5394 4
a 7359 11712 28
a 7359 1314 5
a 7360 10391 6
a 7360 7361 5
a 7360 11629 1
a 7361 7360 5
a 7361 10392 13
a 7361 13229 11
a 7362 2141 10
a 7362 2118 17
a 7362 2123 17
a 7363 1328 19
a 7363 8777 11
a 7363 7248 6
a 7364 1324 34
a 7364 1323 55
a 7364 2001 13
a 7365 4779 26
a 7365 73 5
a 7366 7374 2
a 7366 7367 8
a 7366 12343 13
a 7367 7366 8
a 7367 6717 28
a 7367 9143 21
a 7368 12776 3
a 7368 12777 19
a 7368 6540 17
a 7369 6656 8
a 7369 10633 6
a 7369 6697 23
a 7370 6547 31
a 7370 4179 8
a 7370 6532 10
a 7371 7372 16
a 7372 6423 29
a 7372 7371 16
a 7372 6508 7
a 7373 9593 19
a 7373 10737 13
a 7373 9290 15
a 7374 7366 2
a 7374 9025 20
a 7374 9025 3
a 7375 7380 21
a 7376 12952 4
a 7376 6904 10
a 7376 10648 20
a 7377 6903 6
a 7377 6903 25
a 7377 10341 15
a 7378 10647 5
a 7378 10647 22
a 7378 10647 21
a 7378 12953 3
a 7379 10652 2
a 7379 10654 10
a 7379 10649 16
a 7380 6899 6
a 7380 6900 6
a 7380 12953 39
a 7380 7375 21
a 7381 12702 5
a 7381 8465 9
a 7381 8470 5
a 7382 10342 10
a 7383 12701 5
a 7383 8470 5
a 7383 8482 18
a 7384 1281 4
a 7384 522 4
a 7385 753 23
a 7386 8097 13
a 7387 9259 4
a 7387 8403 4
a 7387 12005 20
a 7388 8403 15
a 7388 9261 9
a 7388 9907 19
a 7389 11523 8
a 7389 6794 9
a 7390 7065 3
a 7391 218 10
a 7391 221 35
a 7391 222 55
a 7391 11079 11
a 7392 6399 17
a 7392 6468 6
a 7392 12685 3
a 7393 11028 98
a 7394 7395 15
a 7394 7748 27
a 7394 2573 2
a 7395 7394 15
a 7395 2589 27
a 7395 9939 10
a 7396 162 16
a 7396 8254 24
a 7396 10856 20
a 7396 9491 18
a 7397 199 9
a 7397 198 8
a 7398 7397 28
a 7398 7328 9
a 7398 112 5
a 7399 13610 73
a 7399 123 5
a 7400 2121 11
a 7400 2115 13
a 7401 7606 8
a 7402 7403 8
a 7402 3918 22
a 7403 3632 3
a 7403 9115 12
a 7404 8833 2
a 7404 2723 12
a 7404 11970 25
a 7405 3892 15
a 7405 7406 36
a 7406 2719 14
a 7406 7417 10
a 7407 8832 2
a 7407 10924 17
a 7408 11056 1
a 7409 8423 2
a 7409 7410 6
a 7410 7407 9
a 7411 8536 2
a 7411 7412 6
a 7412 3223 13
a 7413 8728 2
a 7413 7414 7
a 7414 11057 15
a 7415 8535 4
a 7415 7416 6
a 7416 11059 11
a 7417 7418 2
a 7417 7413 17
a 7418 2721 9
a 7419 40 9
a 7420 7569 5
a 7421 4808 6
a 7421 6932 5
a 7421 6938 38
a 7422 7736 19
a 7422 8155 10
a 7423 6934 2
a 7423 13537 14
a 7424 44 13
a 7425 4807 13
a 7425 8761 9
a 7425 7426 16
a 7425 7426 53
a 7426 7425 16
a 7426 7425 53
a 7426 8762 32
a 7427 7497 13
a 7427 4795 13
a 7427 4800 32
a 7428 8764 38
a 7428 8759 33
a 7428 7611 10
a 7429 4785 51
a 7429 4787 19
a 7429 8770 59
a 7430 4833 38
a 7431 12530 7
a 7431 13019 3
a 7432 624 12
a 7433 9298 15
a 7433 7513 17
a 7434 9653 22
a 7434 13447 52
a 7435 7610 13
a 7435 871 36
a 7435 9653 11
a 7436 8185 48
a 7437 7438 21
a 7437 5933 22
a 7437 10427 17
a 7438 7437 21
a 7438 6043 62
a 7438 8321 47
a 7439 1535 21
a 7439 454 42
a 7439 451 19
a 7440 13060 1
a 7440 13061 2
a 7441 1654 5
a 7442 7449 27
a 7442 13205 24
a 7442 7443 30
a 7443 7442 30
a 7443 7448 13
a 7443 7447 14
a 7444 11048 2
a 7444 7445 5
a 7444 12587 9
a 7445 7446 30
a 7445 7444 5
a 7445 11692 7
a 7446 7445 30
a 7446 13012 10
a 7447 7443 14
a 7448 12195 3
a 7448 7840 18
a 7448 7443 13
a 7449 11406 2
a 7449 7442 27
a 7450 5750 13
a 7451 5750 25
a 7452 4234 7
a 7452 4233 5
a 7453 4237 1
a 7453 11946 8
a 7453 2437 3
a 7454 11425 5
a 7454 5826 7
a 7454 12625 4
a 7455 1265 10
a 7455 7314 8
a 7456 9762 7
a 7456 5939 7
a 7456 7457 8
a 7457 8356 5
a 7457 7456 8
a 7457 7458 15
a 7458 8356 25
a 7458 7457 15
a 7458 5941 6
a 7459 11011 9
a 7459 8342 8
a 7459 5938 11
a 7460 7461 21
a 7461 7202 12
a 7461 7460 21
a 7461 10996 15
a 7462 12195 7
a 7462 12045 18
a 7463 12467 1
a 7463 12247 6
a 7464 1649 12
a 7465 8910 2
a 7465 7464 5
a 7466 743 8
a 7467 7466 4
a 7467 13093 3
a 7468 5610 3
a 7468 5496 21
a 7468 13272 11
a 7469 7470 10
a 7469 7319 5
a 7469 5646 24
a 7470 7469 10
a 7471 3777 6
a 7472 3989 2
a 7472 3981 3
a 7472 4081 29
a 7473 7224 11
a 7473 7223 15
a 7473 13245 14
a 7474 13245 2
a 7474 7559 29
a 7475 12624 9
a 7476 8322 14
a 7477 7478 47
a 7478 7477 47
a 7478 9582 15
a 7479 7209 26
a 7480 4135 18
a 7480 8276 15
a 7480 4136 19
a 7481 10889 8
a 7481 6030 10
a 7481 4239 34
a 7482 3969 18
a 7483 10887 8
a 7484 6053 16
a 7484 11273 5
a 7484 6054 11
a 7485 8354 5
a 7486 6998 1
a 7486 9701 4
a 7487 9704 48
a 7488 46 7
a 7488 335 16
a 7489 8849 17
a 7489 13307 6
a 7489 5706 26
a 7490 7491 29
a 7490 10794 29
a 7490 4269 6
a 7490 10201 7
a 7491 7639 4
a 7491 7490 29
a 7491 12958 8
a 7492 5274 28
a 7492 5453 11
a 7492 13306 1
a 7492 5273 46
a 7493 5272 22
a 7493 5271 24
a 7493 5466 9
a 7494 5257 7
a 7494 5248 40
a 7494 5259 58
a 7495 12674 3
a 7495 10478 34
a 7495 13286 23
a 7496 4786 10
a 7496 8766 23
a 7496 8767 33
a 7497 4787 15
a 7497 8767 9
a 7497 4786 53
a 7497 7427 13
a 7498 4794 9
a 7498 4798 23
a 7498 4798 52
a 7499 7611 1
a 7499 4808 7
a 7499 7187 6
a 7500 11481 27
a 7500 5668 5
a 7500 5429 9
a 7501 5731 1
a 7501 5491 8
a 7501 5633 24
a 7502 1242 7
a 7502 1317 31
a 7503 9858 42
a 7503 781 44
a 7503 780 9
a 7504 1329 11
a 7504 1328 12
a 7504 8777 20
a 7505 3146 13
a 7505 7556 26
a 7505 3166 31
a 7506 747 2
a 7506 9033 1
a 7507 7847 16
a 7508 170 2
a 7508 7507 1
a 7509 170 1
a 7509 7507 6
a 7510 6043 18
a 7510 6044 14
a 7510 11433 13
a 7511 1315 12
a 7511 1316 20
a 7512 2476 11
a 7512 1295 53
a 7512 557 24
a 7513 7610 34
a 7513 2440 46
a 7513 7434 12
a 7514 9656 9
a 7514 7515 6
a 7515 3714 11
a 7516 7702 16
a 7516 7517 8
a 7516 7519 36
a 7517 7519 26
a 7517 7516 8
a 7517 7518 12
a 7518 7517 12
a 7518 7641 7
a 7518 2145 6
a 7519 7520 13
a 7519 7517 26
a 7519 7516 36
a 7520 7519 13
a 7520 7641 6
a 7520 11159 5
a 7521 13324 33
a 7522 2978 12
a 7522 8078 17
a 7522 3169 24
a 7523 113 8
a 7524 7720 1
a 7524 485 12
a 7525 7712 1
a 7525 7714 25
a 7526 481 1
a 7526 10305 27
a 7527 9377 1
a 7527 13071 11
a 7528 11177 12
a 7528 7529 6
a 7528 13071 10
a 7528 13040 25
a 7529 2472 1
a 7529 13041 11
a 7530 2923 4
a 7530 3175 37
a 7531 550 18
a 7532 72 17
a 7532 7555 32
a 7533 2469 2
a 7533 8177 4
a 7534 2467 2
a 7534 538 1
a 7535 395 1
a 7535 12126 5
a 7536 5575 1
a 7536 13181 9
a 7536 5551 3
a 7537 7538 9
a 7537 1234 15
a 7538 7540 3
a 7538 7541 9
a 7538 7539 9
a 7539 1290 25
a 7539 7540 8
a 7540 7542 9
a 7540 7538 3
a 7540 7537 8
a 7541 7246 8
a 7541 7538 9
a 7541 7244 14
a 7542 1291 1
a 7542 7540 9
a 7542 552 15
a 7543 7544 14
a 7543 11954 24
a 7543 7546 22
a 7544 7548 5
a 7544 11954 36
a 7544 7543 14
a 7545 1291 8
a 7545 1232 8
a 7545 7546 22
a 7546 560 8
a 7546 1237 10
a 7546 7545 22
a 7546 7543 22
a 7547 7548 12
a 7547 7552 4
a 7548 7544 5
a 7548 7547 12
a 7548 1238 8
a 7549 7245 12
a 7549 7550 14
a 7549 7554 19
a 7550 1236 6
a 7550 1235 22
a 7550 7549 14
a 7551 1274 6
a 7551 1279 5
a 7551 9490 11
a 7551 564 16
a 7552 561 10
a 7553 561 11
a 7553 560 12
a 7553 7552 16
a 7554 7246 12
a 7554 1235 2
a 7554 7549 19
a 7555 7532 32
a 7556 7505 26
a 7556 99 7
a 7557 1230 2
a 7557 12465 21
a 7558 11256 2
a 7558 7401 30
a 7559 7402 2
a 7560 1035 15
a 7560 1089 7
a 7561 7093 2
a 7561 9184 9
a 7561 11927 3
a 7562 5875 4
a 7562 5886 14
a 7562 11493 8
a 7563 7564 12
a 7563 7602 6
a 7564 7603 8
a 7564 7110 6
a 7564 7563 12
a 7565 6375 20
a 7566 5950 3
a 7567 11296 9
a 7567 5425 18
a 7567 407 3
a 7568 7570 2
a 7568 7571 3
a 7569 7570 3
a 7569 7571 2
a 7570 11027 11
a 7571 7433 5
a 7572 8051 13
a 7572 7573 32
a 7572 7573 35
a 7573 6982 19
a 7573 7572 35
a 7573 7572 32
a 7573 7576 23
a 7574 1043 5
a 7574 9391 54
a 7574 9055 18
a 7575 9391 1
a 7575 1071 6
a 7576 6982 22
a 7576 7573 23
a 7577 9805 24
a 7577 10016 6
a 7577 7576 14
a 7578 3336 7
a 7578 7676 23
a 7578 8927 23
a 7579 4863 8
a 7580 88 3
a 7580 7581 5
a 7581 7580 5
a 7581 11071 3
a 7582 4365 8
a 7582 4550 2
a 7582 8909 23
a 7583 7277 1
a 7583 31 3
a 7584 7585 8
a 7584 7587 18
a 7584 3599 8
a 7585 7584 8
a 7585 7588 16
a 7585 5021 7
a 7586 5021 13
a 7587 7584 18
a 7588 7585 16
a 7589 11110 7
a 7589 4156 3
a 7589 7591 14
a 7590 9286 2
a 7591 11110 11
a 7591 7592 3
a 7591 7589 14
a 7592 7591 3
a 7593 7594 7
a 7594 24 6
a 7595 8346 1
a 7595 8564 27
a 7595 12290 9
a 7596 4781 11
a 7597 13124 1
a 7597 7268 19
a 7597 7598 12
a 7598 13123 2
a 7598 8530 10
a 7598 8956 9
a 7598 7597 12
a 7599 8831 2
a 7599 11474 1
a 7600 8531 6
a 7600 13131 3
a 7600 7269 40
a 7601 11050 2
a 7601 7599 3
a 7601 11475 2
a 7602 7601 3
a 7602 11051 2
a 7602 11476 2
a 7603 10830 1
a 7603 7269 28
a 7603 7564 8
a 7604 7606 2
a 7604 7474 7
a 7605 7212 28
a 7606 870 3
a 7606 7604 2
a 7607 7608 1
a 7607 12289 3
a 7607 8330 14
a 7608 7607 1
a 7608 10907 9
a 7609 3722 8
a 7609 12942 2
a 7609 11768 19
a 7610 12094 36
a 7610 7513 34
a 7610 7420 17
a 7611 7499 1
a 7611 6936 25
a 7611 7428 10
a 7612 7255 3
a 7612 11788 7
a 7612 3090 39
a 7613 11972 19
a 7613 316 29
a 7613 83 33
a 7614 11398 21
a 7614 7614 102
a 7615 7692 9
a 7616 4086 94
a 7616 4075 10
a 7616 7620 5
a 7617 7619 22
a 7617 3827 31
a 7618 7617 17
a 7618 7619 9
a 7619 7620 37
a 7619 7618 9
a 7620 7692 27
a 7620 7616 5
a 7621 8626 3
a 7621 12513 24
a 7622 12406 26
a 7623 7624 9
a 7623 7353 3
a 7624 7625 4
a 7624 3230 3
a 7624 3301 13
a 7625 3266 3
a 7625 10918 7
a 7625 3299 14
a 7626 7627 17
a 7626 3898 11
a 7627 3760 12
a 7627 3848 18
a 7628 10914 10
a 7628 3229 15
a 7628 12774 2
a 7629 8686 7
a 7629 3585 8
a 7630 2185 1
a 7630 7631 14
a 7631 2758 4
a 7631 11886 2
a 7631 7761 15
a 7632 12046 1
a 7632 6971 9
a 7632 6892 26
a 7633 2140 15
a 7633 7634 9
a 7633 2141 18
a 7634 2138 16
a 7634 2863 9
a 7634 7633 9
a 7634 2139 26
a 7635 2131 8
a 7635 2127 11
a 7635 7636 10
a 7635 2905 9
a 7636 2849 3
a 7636 3115 8
a 7636 7635 10
a 7637 9746 37
a 7637 9746 14
a 7637 4636 4
a 7638 10317 14
a 7638 3426 14
a 7638 7655 15
a 7639 7491 4
a 7639 5274 3
a 7639 10204 40
a 7639 9110 40
a 7640 13127 3
a 7640 10437 8
a 7640 4235 13
a 7641 2143 9
a 7641 7520 6
a 7641 7518 7
a 7642 611 14
a 7642 8923 22
a 7642 11036 23
a 7643 8924 11
a 7643 618 44
a 7643 8923 21
a 7644 614 9
a 7644 606 9
a 7644 11036 17
a 7644 8100 23
a 7645 2971 11
a 7645 2957 13
a 7645 7688 48
a 7646 7647 9
a 7647 2957 9
a 7647 8047 9
a 7648 9476 11
a 7648 9476 48
a 7648 8046 16
a 7649 2872 23
a 7649 7675 27
a 7649 7688 70
a 7650 1031 20
a 7650 1028 10
a 7651 11353 1
a 7651 7652 3
a 7652 741 11
a 7653 12429 1
a 7653 12331 1
a 7654 7658 3
a 7654 7520 14
a 7655 7638 15
a 7655 10329 94
a 7655 3354 4
a 7656 11732 6
a 7656 7950 25
a 7656 9978 7
a 7657 11732 14
a 7658 12802 22
a 7659 7660 31
a 7659 3345 7
a 7659 9881 11
a 7660 7659 31
a 7660 9885 8
a 7660 10026 14
a 7661 2395 23
a 7661 7662 31
a 7661 2406 15
a 7662 8952 2
a 7662 3082 4
a 7662 7661 31
a 7663 9032 7
a 7664 1944 31
a 7665 1982 15
a 7666 1950 38
a 7666 1940 12
a 7666 7667 14
a 7667 6977 3
a 7667 7666 14
a 7668 1954 4
a 7669 1955 3
a 7670 1971 12
a 7670 12560 5
a 7670 1973 29
a 7671 1971 12
a 7671 1972 28
a 7671 7271 7
a 7672 1921 3
a 7673 3528 14
a 7675 7649 27
a 7676 9884 17
a 7676 7578 23
a 7676 2886 6
a 7677 9023 25
a 7677 7684 9
a 7678 2886 5
a 7678 7679 17
a 7678 3114 19
a 7679 9023 16
a 7679 7678 17
a 7679 8046 10
a 7680 12009 5
a 7680 9883 4
a 7681 9071 9
a 7681 9207 18
a 7682 11907 3
a 7682 4962 25
a 7682 12792 3
a 7683 9208 44
a 7683 9196 26
a 7683 4966 17
a 7683 6771 27
a 7684 9024 18
a 7684 7685 9
a 7685 7690 10
a 7685 7684 9
a 7685 2971 71
a 7686 7689 10
a 7686 7646 42
a 7686 7688 14
a 7687 7688 10
a 7687 2956 2
a 7687 144 12
a 7688 7687 10
a 7688 7645 48
a 7688 7686 14
a 7688 7649 70
a 7689 7646 30
a 7689 2872 10
a 7689 7686 10
a 7690 7685 10
a 7690 1033 22
a 7690 3000 22
a 7691 3827 8
a 7692 7615 9
a 7692 7618 3
a 7693 7694 20
a 7693 1026 14
a 7694 1030 14
a 7694 7693 20
a 7695 3778 9
a 7695 8878 12
a 7696 3079 2
a 7696 7697 18
a 7696 9605 35
a 7697 3527 2
a 7697 3528 35
a 7697 7698 31
a 7698 9684 23
a 7699 4903 11
a 7699 4894 11
a 7699 4898 39
a 7700 8729 9
a 7700 3962 10
a 7700 3877 14
a 7701 8729 2
a 7701 10315 17
a 7702 7516 16
a 7702 7703 18
a 7702 7703 32
a 7703 7702 32
a 7703 7702 18
a 7703 3708 12
a 7704 3211 10
a 7704 8 7
a 7705 8 3
a 7705 7704 5
a 7705 7770 5
a 7706 7345 7
a 7706 9356 3
a 7707 12743 1
a 7707 10130 11
a 7708 13575 1
a 7708 7254 7
a 7709 5388 19
a 7709 5378 9
a 7709 5380 66
a 7709 5384 8
a 7710 5382 18
a 7710 5378 8
a 7710 5381 66
a 7710 5377 8
a 7711 9112 7
a 7711 8415 16
a 7712 7715 1
a 7713 7716 1
a 7713 489 23
a 7714 7718 15
a 7715 7266 1
a 7715 7713 24
a 7716 7526 1
a 7716 7717 16
a 7717 11180 1
a 7717 2445 30
a 7718 7663 1
a 7718 12745 2
a 7719 485 1
a 7719 7720 12
a 7720 7721 1
a 7720 7525 28
a 7721 479 1
a 7721 7722 25
a 7722 10305 1
a 7722 481 27
a 7723 8412 4
a 7723 8412 72
a 7724 12743 1
a 7725 10243 11
a 7725 8093 4
a 7726 154 4
a 7726 3522 20
a 7726 2826 87
a 7727 10089 5
a 7727 13428 2
a 7728 8972 13
a 7728 11075 2
a 7729 13138 31
a 7729 10999 6
a 7730 1540 10
a 7730 7731 2
a 7730 9865 5
a 7731 7730 2
a 7731 7771 4
a 7732 1214 2
a 7732 12363 3
a 7733 9694 1
a 7733 3190 22
a 7734 13372 2
a 7734 13619 6
a 7734 7735 3
a 7735 7872 4
a 7735 7734 3
a 7736 7422 19
a 7736 8165 19
a 7736 8157 15
a 7736 1862 59
a 7737 3056 4
a 7737 160 1
a 7738 9692 3
a 7738 12933 1
a 7739 7740 3
a 7739 10088 2
a 7740 7738 1
a 7740 10091 2
a 7741 138 1
a 7741 12579 17
a 7742 7335 16
a 7742 7741 4
a 7743 3046 2
a 7743 7742 26
a 7744 159 1
a 7744 7747 32
a 7744 173 8
a 7745 7743 8
a 7745 2551 11
a 7746 7745 8
a 7746 109 2
a 7747 2816 10
a 7747 7746 20
a 7747 107 1
a 7748 6956 1
a 7748 9434 2
a 7749 51 1
a 7749 2767 2
a 7750 7809 11
a 7750 8048 2
a 7751 6961 2
a 7751 12854 2
a 7751 10129 1
a 7752 7753 4
a 7752 1570 21
a 7752 10239 3
a 7753 3328 11
a 7753 10239 3
a 7754 750 19
a 7755 11312 2
a 7755 77 6
a 7756 9415 10
a 7757 152 1
a 7757 8432 4
a 7758 6794 3
a 7758 6793 4
a 7758 11509 5
a 7759 9082 6
a 7759 9898 11
a 7760 7757 1
a 7760 2761 1
a 7761 7763 2
a 7761 7349 8
a 7762 10147 4
a 7762 10921 14
a 7763 7761 2
a 7763 2758 16
a 7764 7765 3
a 7764 8785 4
a 7764 7766 13
a 7765 7764 3
a 7765 12385 1
a 7765 12474 3
a 7765 4036 24
a 7766 3960 2
a 7766 7764 13
a 7766 10975 30
a 7767 3240 8
a 7767 3237 10
a 7767 10979 14
a 7768 325 24
a 7768 7346 27
a 7769 8 6
a 7769 1541 26
a 7770 7731 4
a 7770 7771 2
a 7770 7705 5
a 7771 372 14
a 7771 7770 2
a 7771 7731 4
a 7771 8960 21
a 7773 1143 2
a 7773 2441 9
a 7773 11183 15
a 7774 8114 40
a 7774 10511 59
a 7774 7775 9
a 7775 7796 44
a 7775 7972 4
a 7775 7774 9
a 7776 8132 9
a 7776 7972 6
a 7776 7797 48
a 7777 8273 4
a 7777 9830 15
a 7777 7831 10
a 7777 7792 7
a 7778 10224 3
a 7778 10507 8
a 7778 7782 27
a 7779 10485 2
a 7779 7979 24
a 7779 10224 12
a 7779 7980 6
a 7780 9832 10
a 7780 9535 20
a 7780 7783 8
a 7780 7808 16
a 7781 7782 5
a 7781 11934 8
a 7781 7980 29
a 7782 9535 4
a 7782 7781 5
a 7782 7778 27
a 7783 9831 13
a 7783 7780 8
a 7783 4477 16
a 7784 9534 5
a 7784 8112 18
a 7784 7786 2
a 7785 4840 3
a 7785 11931 29
a 7785 11933 13
a 7786 9831 6
a 7786 7792 12
a 7786 7784 2
a 7787 7997 5
a 7787 7999 14
a 7787 7788 13
a 7788 7803 17
a 7788 12664 20
a 7789 7999 4
a 7789 4840 7
a 7790 11932 21
a 7790 12664 16
a 7790 12081 5
a 7790 7803 20
a 7791 10511 2
a 7792 7831 10
a 7792 7786 12
a 7792 9832 14
a 7792 7777 7
a 7793 9409 29
a 7793 4477 11
a 7793 9534 8
a 7794 9399 10
a 7794 8132 8
a 7794 9829 12
a 7794 7798 33
a 7795 7973 12
a 7795 7974 7
a 7795 9829 12
a 7795 9532 11
a 7796 7775 44
a 7796 8114 5
a 7796 7970 5
a 7797 7970 5
a 7797 8131 8
a 7797 9827 6
a 7797 7776 48
a 7798 9842 7
a 7798 8110 7
a 7798 7794 33
a 7799 7800 1
a 7799 1659 42
a 7799 8745 11
a 7800 7799 1
a 7800 11333 2
a 7801 12248 2
a 7801 2804 3
a 7801 8661 2
a 7802 12884 1
a 7802 407 1
a 7803 7788 17
a 7803 11933 10
a 7803 7789 13
a 7804 1949 13
a 7804 1948 14
a 7804 7806 7
a 7805 1992 35
a 7806 7804 7
a 7806 8098 5
a 7806 8096 3
a 7807 8263 8
a 7808 8263 11
a 7808 10507 3
a 7808 7993 13
a 7808 7780 16
a 7809 7930 7
a 7809 136 1
a 7810 8372 3
a 7810 8353 20
a 7811 9088 3
a 7811 9089 4
a 7811 9091 20
a 7812 12283 1
a 7812 12141 8
a 7812 8372 23
a 7813 10802 21
a 7813 11996 24
a 7813 7929 7
a 7814 8297 3
a 7814 4128 8
a 7814 7815 36
a 7815 7816 10
a 7815 8288 14
a 7815 7814 36
a 7816 7817 4
a 7816 7815 10
a 7816 13202 2
a 7817 8304 3
a 7817 7816 4
a 7817 8306 18
a 7818 8304 5
a 7819 8301 7
a 7819 7822 35
a 7819 9756 15
a 7820 8294 6
a 7820 8293 9
a 7820 7822 37
a 7821 9758 1
a 7821 8293 13
a 7821 8380 9
a 7822 8301 28
a 7822 7820 37
a 7822 7819 35
a 7823 7825 8
a 7823 8326 4
a 7823 11471 23
a 7824 8284 5
a 7824 13198 4
a 7824 10010 29
a 7825 13194 5
a 7825 7823 8
a 7825 8558 15
a 7826 8559 10
a 7826 8561 14
a 7826 7827 13
a 7827 10285 10
a 7827 7826 13
a 7827 7828 37
a 7827 9469 23
a 7828 7098 23
a 7828 7098 28
a 7828 7827 37
a 7829 7914 7
a 7829 7913 43
a 7829 2081 33
a 7830 7281 1
a 7831 7792 10
a 7831 9842 20
a 7831 7777 10
a 7831 9843 11
a 7832 10075 13
a 7832 913 24
a 7833 13045 29
a 7833 1271 49
a 7834 7488 11
a 7834 336 11
a 7835 9432 1
a 7835 9879 3
a 7836 11868 14
a 7837 12 3
a 7838 9955 4
a 7838 10015 2
a 7839 7462 2
a 7839 8609 13
a 7840 8511 2
a 7840 9015 41
a 7840 7446 4
a 7841 7842 1
a 7841 11190 21
a 7842 7918 4
a 7842 11190 23
a 7843 13099 1
a 7843 7593 5
a 7844 3680 34
a 7844 1875 13
a 7845 7844 1
a 7845 1803 20
a 7846 3925 17
a 7846 13174 2
a 7847 7834 10
a 7848 7313 9
a 7849 7848 3
a 7849 7850 4
a 7849 2442 7
a 7850 7849 4
a 7850 10817 2
a 7850 13015 2
a 7851 1832 6
a 7852 1829 13
a 7852 1828 13
a 7852 7853 36
a 7853 7293 13
a 7853 1830 13
a 7853 7852 36
a 7854 12348 5
a 7854 1018 11
a 7854 7297 4
a 7855 7297 5
a 7855 920 11
a 7856 7916 3
a 7856 860 17
a 7856 7857 12
a 7857 9123 9
a 7857 8823 9
a 7857 7856 12
a 7858 7859 2
a 7858 3866 10
a 7859 7858 2
a 7859 3724 2
a 7861 4191 4
a 7861 7862 15
a 7861 4190 19
a 7862 11800 6
a 7862 7861 15
a 7862 11790 5
a 7863 7864 2
a 7863 7866 5
a 7864 1543 5
a 7865 7866 2
a 7865 7864 5
a 7866 8158 22
a 7867 8278 10
a 7867 6048 3
a 7867 3640 6
a 7868 7869 4
a 7868 7895 23
a 7868 7871 6
a 7869 7868 4
a 7869 6317 25
a 7869 6317 38
a 7870 8363 17
a 7870 8363 19
a 7870 9810 19
a 7871 6316 8
a 7871 6314 8
a 7871 7868 6
a 7872 51 3
a 7872 7424 11
a 7873 3487 18
a 7874 8410 9
a 7875 9467 14
a 7876 2296 5
a 7877 4288 2
a 7879 1661 7
a 7880 4759 6
a 7883 4597 4
a 7884 12905 3
a 7885 12867 1
a 7885 404 12
a 7885 12868 6
a 7886 6926 3
a 7887 6928 3
a 7888 3436 2
a 7889 3450 2
a 7890 3461 2
a 7891 3481 6
a 7892 3486 12
a 7893 3456 2
a 7894 3452 2
a 7895 6319 8
a 7895 6318 8
a 7895 7868 23
a 7896 6357 7
a 7896 6326 1
a 7896 6327 10
a 7897 6356 3
a 7897 10853 40
a 7897 10403 8
a 7898 11638 6
a 7898 6332 11
a 7898 6327 10
a 7899 6361 13
a 7900 6313 20
a 7901 6291 20
a 7902 6330 15
a 7902 6335 5
a 7902 6334 41
a 7903 4231 6
a 7903 9381 8
a 7903 9380 20
a 7904 10400 1
a 7904 6352 8
a 7905 3427 3
a 7906 12187 7
a 7906 5413 10
a 7906 5409 9
a 7907 7909 8
a 7907 11388 14
a 7907 11388 16
a 7908 7909 8
a 7908 11387 15
a 7908 11387 14
a 7909 2258 11
a 7909 2246 11
a 7909 7907 8
a 7909 7908 8
a 7910 7910 53
a 7910 3882 14
a 7911 3736 11
a 7912 9006 14
a 7913 7914 11
a 7913 7829 43
a 7913 7915 29
a 7914 7829 7
a 7914 7913 11
a 7914 11328 2
a 7914 3164 18
a 7915 12355 1
a 7915 7913 29
a 7915 3084 10
a 7915 3164 7
a 7916 7856 3
a 7916 7408 11
a 7916 12604 6
a 7917 2632 2
a 7917 12147 2
a 7917 7916 23
a 7918 13148 1
a 7918 12891 15
a 7919 7190 7
a 7919 7189 12
a 7919 7920 6
a 7920 6088 5
a 7920 6086 17
a 7920 7919 6
a 7921 13159 2
a 7921 7843 7
a 7922 12167 41
a 7922 11553 28
a 7923 8550 38
a 7923 134 25
a 7923 7925 16
a 7924 8048 13
a 7925 12010 16
a 7925 7926 9
a 7925 7923 16
a 7926 8550 13
a 7926 8550 33
a 7926 7925 9
a 7927 1364 6
a 7928 7929 12
a 7929 7928 12
a 7929 7813 7
a 7930 7809 7
a 7930 9087 11
a 7930 11996 43
a 7931 9430 17
a 7931 8026 14
a 7931 8027 12
a 7931 8028 29
a 7932 9825 19
a 7932 2200 14
a 7932 12164 1
a 7933 7945 5
a 7934 4140 13
a 7935 12184 6
a 7935 10198 6
a 7935 10195 5
a 7936 7938 6
a 7936 867 3
a 7937 9715 6
a 7938 2748 13
a 7939 7937 5
a 7939 2185 2
a 7940 7941 6
a 7941 4014 5
a 7941 3927 2
a 7941 7940 6
a 7942 4014 32
a 7943 4116 16
a 7943 4120 8
a 7943 4115 4
a 7944 1039 19
a 7945 6314 5
a 7945 6313 6
a 7945 7933 5
a 7945 6319 25
a 7946 2342 8
a 7947 3700 30
a 7947 13175 8
a 7947 9825 58
a 7948 778 70
a 7948 777 3
a 7949 3625 47
a 7950 7656 25
a 7951 8568 18
a 7951 11733 16
a 7951 7954 13
a 7952 7954 13
a 7953 9797 23
a 7954 7952 13
a 7954 7956 18
a 7954 7951 13
a 7955 8568 5
a 7956 9797 5
a 7956 11097 9
a 7956 7954 18
a 7957 7958 2
a 7957 3304 27
a 7957 12814 15
a 7958 7957 2
a 7959 12781 1
a 7960 12151 2
a 7960 7350 7
a 7960 7961 14
a 7961 7960 14
a 7961 12559 3
a 7961 3680 22
a 7962 11891 3
a 7962 3228 9
a 7962 10223 18
a 7963 142 5
a 7963 11883 1
a 7963 7964 13
a 7964 3228 2
a 7964 12392 3
a 7964 7963 13
a 7965 9426 4
a 7965 9222 2
a 7966 7967 6
a 7966 9207 16
a 7966 9071 11
a 7967 7966 6
a 7968 9362 13
a 7968 12609 8
a 7969 4851 15
a 7970 7796 5
a 7970 7797 5
a 7970 7972 45
a 7971 9533 4
a 7971 9396 10
a 7971 9531 5
a 7972 7776 6
a 7972 7775 4
a 7972 7970 45
a 7973 7795 12
a 7973 9533 11
a 7973 9829 24
a 7974 7795 7
a 7974 8132 21
a 7974 8131 32
a 7975 12645 8
a 7975 4138 7
a 7975 4139 29
a 7976 4069 17
a 7976 4012 10
a 7976 4138 9
a 7977 4137 5
a 7978 10510 5
a 7978 8264 7
a 7978 12544 4
a 7979 7779 24
a 7979 7995 14
a 7979 9526 21
a 7980 7781 29
a 7980 11239 32
a 7980 7779 6
a 7981 7987 9
a 7981 4955 27
a 7981 9420 16
a 7982 4841 20
a 7983 4954 4
a 7983 7987 25
a 7984 7986 9
a 7984 8006 9
a 7984 4958 6
a 7985 7991 8
a 7985 7992 13
a 7985 10509 10
a 7986 7984 9
a 7986 4945 6
a 7986 4940 8
a 7987 7981 9
a 7987 10493 1
a 7987 7983 25
a 7988 8006 11
a 7988 4940 1
a 7988 8005 7
a 7989 7990 7
a 7989 4958 6
a 7989 10497 5
a 7990 7989 7
a 7991 7985 8
a 7991 7992 6
a 7991 10496 5
a 7992 13251 1
a 7992 7991 6
a 7992 7985 13
a 7993 7808 13
a 7993 9830 3
a 7993 7994 11
a 7994 13250 18
a 7994 7993 11
a 7994 12664 18
a 7994 8263 14
a 7995 9522 4
a 7995 7996 9
a 7995 7979 14
a 7996 7995 9
a 7996 9523 5
a 7996 9526 10
a 7997 7787 5
a 7997 8001 13
a 7997 8005 13
a 7998 8000 4
a 7998 10495 13
a 7998 4840 13
a 7999 7789 4
a 7999 7787 14
a 7999 11693 25
a 8000 7998 4
a 8001 4849 25
a 8001 11693 7
a 8001 7997 13
a 8002 11929 7
a 8003 8221 7
a 8003 11928 18
a 8003 10499 8
a 8004 11929 18
a 8005 10499 7
a 8005 7988 7
a 8005 7997 13
a 8006 7988 11
a 8006 7984 9
a 8006 10496 13
a 8006 11924 9
a 8007 180 7
a 8008 179 5
a 8008 178 6
a 8009 178 6
a 8009 8016 5
a 8010 8022 10
a 8011 10221 5
a 8011 180 5
a 8011 8008 17
a 8011 8014 9
a 8012 8022 4
a 8012 8017 1
a 8012 8009 17
a 8013 8504 3
a 8014 8011 9
a 8015 11740 4
a 8015 8022 1
a 8015 8016 17
a 8016 8009 5
a 8017 8012 1
a 8017 181 5
a 8017 8021 11
a 8018 12441 28
a 8018 8019 3
a 8019 819 11
a 8019 8504 13
a 8019 12442 35
a 8020 10221 15
a 8021 8017 11
a 8022 8015 1
a 8022 8012 4
a 8022 8010 10
a 8023 5795 13
a 8023 5793 7
a 8023 8025 17
a 8024 5790 5
a 8025 5788 25
a 8025 5795 10
a 8025 8023 17
a 8026 7931 14
a 8026 8799 26
a 8026 8028 19
a 8027 7931 12
a 8027 12818 7
a 8027 11449 9
a 8028 8798 17
a 8028 7931 29
a 8028 8026 19
a 8029 10032 6
a 8029 9103 9
a 8029 2200 57
a 8030 12395 1
a 8030 8031 9
a 8030 9101 14
a 8031 9104 7
a 8031 9103 24
a 8031 8030 9
a 8032 8804 1
a 8032 8803 10
a 8032 13596 16
a 8033 7487 4
a 8033 8797 7
a 8034 8035 2
a 8034 754 7
a 8035 8034 2
a 8035 11955 11
a 8036 11964 2
a 8036 7259 2
a 8037 7466 3
a 8037 13093 4
a 8038 2815 9
a 8038 8040 16
a 8039 8133 9
a 8039 3153 12
a 8039 8040 28
a 8040 8038 16
a 8040 2829 30
a 8040 8039 28
a 8041 8582 2
a 8041 2301 37
a 8042 8041 4
a 8043 786 3
a 8044 844 17
a 8045 842 11
a 8045 4816 24
a 8045 847 11
a 8046 2886 14
a 8046 7679 10
a 8046 7648 16
a 8047 2872 16
a 8047 7647 47
a 8048 7924 13
a 8048 134 8
a 8048 7750 2
a 8049 1029 13
a 8049 145 15
a 8050 9476 31
a 8051 7572 13
a 8052 8055 7
a 8053 9432 2
a 8053 9875 13
a 8054 1036 24
a 8054 1036 39
a 8055 8052 7
a 8055 1038 22
a 8055 11165 7
a 8056 9743 11
a 8057 1027 1
a 8057 145 6
a 8057 9744 52
a 8058 8049 10
a 8058 1038 15
a 8058 1036 27
a 8059 9875 4
a 8060 1037 8
a 8060 1038 25
a 8060 11253 10
a 8061 662 7
a 8061 11254 1
a 8062 3897 9
a 8062 2121 94
a 8062 3946 15
a 8063 12508 6
a 8063 3847 13
a 8063 3897 20
a 8064 11098 22
a 8065 8068 11
a 8065 8066 9
a 8066 8407 13
a 8067 8068 2
a 8067 8066 13
a 8068 38 7
a 8069 861 8
a 8069 9679 36
a 8070 12602 2
a 8071 547 22
a 8071 8909 8
a 8071 9053 7
a 8072 8076 11
a 8073 1288 10
a 8073 4365 11
a 8074 1244 15
a 8074 7161 14
a 8074 8075 8
a 8075 7164 22
a 8075 7163 21
a 8075 8080 8
a 8075 8074 8
a 8076 541 6
a 8076 1244 11
a 8076 8072 11
a 8077 526 12
a 8078 7522 17
a 8078 3169 8
a 8078 13493 8
a 8079 1240 16
a 8079 1294 19
a 8079 1294 35
a 8080 8075 8
a 8080 1243 21
a 8081 549 11
a 8081 10246 14
a 8082 6987 69
a 8082 8081 5
a 8083 7107 20
a 8084 1322 17
a 8084 8083 5
a 8085 7667 8
a 8085 7356 3
a 8086 8135 9
a 8086 6944 29
a 8087 2449 10
a 8087 10909 2
a 8088 1958 4
a 8089 11145 35
a 8089 10894 9
a 8090 8083 37
a 8090 8091 4
a 8091 7725 5
a 8092 8093 1
a 8092 10893 2
a 8093 10243 3
a 8093 32 1
a 8094 1148 14
a 8094 1383 11
a 8094 1105 6
a 8095 7365 6
a 8095 73 4
a 8096 7806 3
a 8097 9435 3
a 8097 7386 13
a 8097 13096 25
a 8098 7806 5
a 8099 12410 1
a 8099 10905 3
a 8099 12174 2
a 8100 616 15
a 8100 12728 10
a 8100 7644 23
a 8101 10890 9
a 8101 5987 4
a 8101 5986 28
a 8102 8107 9
a 8102 4028 13
a 8102 9102 10
a 8103 8649 3
a 8103 12394 1
a 8103 8650 19
a 8104 8650 12
a 8104 9100 34
a 8104 8647 8
a 8105 9470 9
a 8105 12396 1
a 8105 9104 35
a 8106 4028 2
a 8107 8102 9
a 8107 10222 38
a 8107 11544 14
a 8108 12163 27
a 8109 12096 1
a 8110 7798 7
a 8110 9843 25
a 8110 8111 12
a 8111 9410 3
a 8111 8113 31
a 8111 8110 12
a 8112 8113 4
a 8112 7784 18
a 8112 9843 5
a 8113 8112 4
a 8113 9534 21
a 8113 8111 31
a 8114 7796 5
a 8114 7774 40
a 8114 8116 46
a 8115 9828 13
a 8115 9826 4
a 8115 8152 9
a 8116 4518 15
a 8116 8114 46
a 8117 233 4
a 8117 8118 21
a 8117 9851 11
a 8118 2558 11
a 8118 8117 21
a 8118 8123 14
a 8119 245 22
a 8119 8995 33
a 8119 9292 12
a 8120 8123 8
a 8120 2567 13
a 8120 2536 29
a 8120 2547 24
a 8121 8995 14
a 8122 8123 5
a 8122 11230 46
a 8122 8124 13
a 8123 8120 8
a 8123 8122 5
a 8123 8118 14
a 8124 8122 13
a 8125 244 2
a 8125 248 17
a 8126 9855 3
a 8127 2831 6
a 8127 2839 6
a 8127 2838 52
a 8128 9532 19
a 8128 8130 2
a 8128 8129 25
a 8129 9828 16
a 8129 8128 25
a 8129 9394 16
a 8130 8131 5
a 8130 9828 21
a 8130 8128 2
a 8131 7797 8
a 8131 8130 5
a 8131 7974 32
a 8132 7794 8
a 8132 7776 9
a 8132 7974 21
a 8133 8039 9
a 8133 2833 13
a 8134 2528 34
a 8134 11494 11
a 8134 173 18
a 8135 8136 35
a 8135 6988 2
a 8136 8135 35
a 8137 10074 1
a 8137 10220 16
a 8138 786 1
a 8138 10219 15
a 8139 787 1
a 8139 12235 21
a 8140 8141 11
a 8140 7272 59
a 8140 4317 46
a 8141 7273 59
a 8141 4318 46
a 8141 8140 11
a 8141 8142 11
a 8142 7015 60
a 8142 4319 46
a 8142 8141 11
a 8143 12826 21
a 8143 3332 8
a 8143 3343 19
a 8144 1394 7
a 8144 1615 7
a 8144 1455 14
a 8145 5397 6
a 8146 3556 4
a 8146 3559 26
a 8147 6840 19
a 8147 6816 17
a 8147 6792 9
a 8148 12753 1
a 8148 8150 4
a 8149 4032 2
a 8149 13327 8
a 8150 10097 1
a 8150 9710 1
a 8151 10815 11
a 8152 8115 9
a 8152 9393 30
a 8152 11706 5
a 8153 9357 1
a 8153 898 4
a 8154 8156 3
a 8154 8153 1
a 8155 8154 2
a 8155 8156 6
a 8156 9862 3
a 8157 7736 15
a 8157 462 3
a 8157 8165 7
a 8158 894 1
a 8158 901 10
a 8159 12456 2
a 8159 11007 54
a 8159 12455 7
a 8160 8163 10
a 8160 10001 8
a 8160 8447 30
a 8161 1016 25
a 8162 1730 10
a 8163 979 11
a 8163 8665 16
a 8163 8160 10
a 8164 295 16
a 8165 7736 19
a 8165 8157 7
a 8165 10077 3
a 8166 13401 1
a 8166 3860 7
a 8167 1177 10
a 8168 8171 4
a 8168 922 5
a 8168 11919 13
a 8169 8172 13
a 8170 8171 12
a 8171 929 4
a 8171 8168 4
a 8171 8170 12
a 8172 932 4
a 8172 929 4
a 8172 8169 13
a 8173 737 14
a 8174 742 2
a 8174 8173 2
a 8175 2178 10
a 8176 9198 1
a 8176 8175 3
a 8177 2468 2
a 8177 538 7
a 8178 8179 23
a 8179 1080 14
a 8179 573 14
a 8179 8178 23
a 8180 7104 9
a 8180 11272 33
a 8180 7105 12
a 8181 9418 21
a 8181 2081 33
a 8181 2080 29
a 8182 7193 8
a 8182 8490 8
a 8182 5662 28
a 8182 8183 21
a 8183 8182 21
a 8183 8491 8
a 8183 7193 30
a 8184 12956 1
a 8184 1220 15
a 8185 8186 1
a 8185 10991 3
a 8186 10112 52
a 8187 8192 4
a 8187 8214 12
a 8187 8191 4
a 8188 8209 5
a 8188 8214 4
a 8188 8192 12
a 8189 8214 4
a 8189 8792 10
a 8189 8191 12
a 8190 8200 5
a 8190 8194 6
a 8190 8203 20
a 8191 8204 3
a 8191 8187 4
a 8191 8189 12
a 8192 8188 12
a 8192 2502 5
a 8192 8187 4
a 8193 8206 6
a 8193 8210 31
a 8193 8205 6
a 8194 8190 6
a 8194 2502 7
a 8194 8209 4
a 8195 8204 4
a 8196 8791 1
a 8197 8199 4
a 8197 8217 11
a 8197 8202 4
a 8198 8206 2
a 8198 8211 6
a 8198 2501 7
a 8199 8197 4
a 8199 8212 1
a 8199 8217 15
a 8200 8203 14
a 8200 8190 5
a 8200 8208 8
a 8201 8204 3
a 8201 8202 19
a 8201 8217 8
a 8202 2502 10
a 8202 8197 4
a 8202 8201 19
a 8203 8200 14
a 8203 8207 5
a 8203 8190 20
a 8204 8191 3
a 8204 8201 3
a 8204 8195 4
a 8205 8792 18
a 8205 8209 6
a 8205 8193 6
a 8206 8193 6
a 8206 8198 2
a 8206 8791 35
a 8207 8203 5
a 8207 8208 11
a 8207 10475 10
a 8208 8211 8
a 8208 8207 11
a 8208 8200 8
a 8209 8188 5
a 8209 8194 4
a 8209 8205 6
a 8210 8193 31
a 8210 8791 6
a 8210 12177 8
a 8211 8198 6
a 8211 10475 1
a 8211 8208 8
a 8212 8199 1
a 8213 1657 3
a 8213 4736 8
a 8214 8188 4
a 8214 8189 4
a 8214 8187 12
a 8215 8218 16
a 8216 5770 17
a 8217 8197 11
a 8217 8201 8
a 8217 8199 15
a 8218 5616 5
a 8218 5633 8
a 8218 8215 16
a 8219 2516 10
a 8220 10758 1
a 8220 4837 16
a 8221 8003 7
a 8221 4941 33
a 8221 10498 8
a 8222 13525 3
a 8222 11175 12
a 8223 12562 10
a 8223 8224 14
a 8224 11543 42
a 8224 2122 62
a 8224 8223 14
a 8224 2110 7
a 8225 138 6
a 8225 3525 41
a 8226 424 29
a 8226 422 14
a 8226 8227 13
a 8226 3557 39
a 8227 9413 7
a 8227 437 26
a 8227 8226 13
a 8228 2569 10
a 8228 423 11
a 8228 429 30
a 8229 8230 5
a 8229 10344 6
a 8229 8236 13
a 8230 8229 5
a 8231 8234 21
a 8231 8250 8
a 8231 8233 18
a 8232 8247 6
a 8232 8250 6
a 8232 10348 43
a 8233 8231 18
a 8234 8235 7
a 8234 8237 7
a 8234 8231 21
a 8235 8234 7
a 8235 12138 15
a 8235 8741 60
a 8236 8237 6
a 8236 8239 6
a 8236 8229 13
a 8237 8236 6
a 8237 8234 7
a 8237 8740 38
a 8238 8239 9
a 8239 8236 6
a 8239 8241 6
a 8239 8238 9
a 8240 8241 10
a 8241 8244 6
a 8241 8239 6
a 8241 8240 10
a 8242 8244 12
a 8243 8245 14
a 8244 8241 6
a 8244 8245 6
a 8244 8242 12
a 8245 8244 6
a 8245 8247 6
a 8245 8243 14
a 8246 8247 16
a 8247 8232 6
a 8247 8245 6
a 8247 8246 16
a 8248 12859 4
a 8248 10346 2
a 8248 10345 3
a 8249 11944 7
a 8249 8251 10
a 8249 11945 8
a 8250 8232 6
a 8250 8231 8
a 8250 8251 9
a 8251 10347 8
a 8251 8250 9
a 8251 8249 10
a 8252 8253 20
a 8253 5399 8
a 8253 5406 28
a 8253 8252 20
a 8254 7396 24
a 8255 12080 22
a 8255 8310 13
a 8255 134 5
a 8256 8257 8
a 8256 4041 14
a 8256 3808 5
a 8257 8256 8
a 8258 3743 10
a 8259 3953 14
a 8259 4038 6
a 8259 3862 6
a 8260 8368 5
a 8261 7629 2
a 8261 11747 19
a 8262 8266 9
a 8262 8269 8
a 8262 8270 16
a 8263 7808 11
a 8263 7807 8
a 8263 7994 14
a 8264 8273 26
a 8264 9842 10
a 8264 7978 7
a 8265 9337 8
a 8265 8270 7
a 8265 10209 4
a 8266 10208 2
a 8266 8262 9
a 8266 8271 8
a 8267 2263 13
a 8268 8271 9
a 8268 11743 7
a 8268 11746 8
a 8269 11749 10
a 8269 13576 14
a 8269 8262 8
a 8270 8265 7
a 8270 12000 1
a 8270 8262 16
a 8271 8268 9
a 8271 11749 4
a 8271 8266 8
a 8272 2259 6
a 8273 7777 4
a 8273 13250 5
a 8273 8264 26
a 8275 12858 8
a 8275 12286 4
a 8275 2803 7
a 8276 7480 15
a 8277 3314 20
a 8278 8712 5
a 8278 8354 4
a 8278 7867 10
a 8279 3703 2
a 8279 3733 2
a 8279 8280 18
a 8280 8279 18
a 8281 3887 10
a 8281 11947 9
a 8281 3776 9
a 8282 11947 5
a 8283 3776 1
a 8283 12610 9
a 8283 3820 7
a 8284 4128 1
a 8284 7824 5
a 8284 8286 10
a 8285 8380 3
a 8285 9752 1
a 8285 8292 27
a 8286 8287 12
a 8286 8287 28
a 8286 8284 10
a 8287 8286 12
a 8287 8286 28
a 8287 12608 12
a 8288 7815 14
a 8289 8293 25
a 8290 8295 7
a 8291 8299 8
a 8292 8285 27
a 8293 8289 25
a 8293 7820 9
a 8293 7821 13
a 8293 8299 9
a 8294 8295 9
a 8294 8301 3
a 8294 7820 6
a 8295 8299 16
a 8295 8290 7
a 8295 8294 9
a 8296 8297 14
a 8297 9752 1
a 8297 7814 3
a 8297 8296 14
a 8298 9757 51
a 8298 9758 8
a 8298 9754 28
a 8299 8295 16
a 8299 8291 8
a 8299 8293 9
a 8300 13201 8
a 8300 8302 7
a 8301 7822 28
a 8301 7819 7
a 8301 8294 3
a 8302 8303 19
a 8302 8300 7
a 8302 137 36
a 8303 8302 19
a 8304 7817 3
a 8304 7818 5
a 8304 8305 18
a 8305 8304 18
a 8306 7817 18
a 8307 11040 98
a 8307 8308 16
a 8307 8312 23
a 8308 11482 71
a 8308 8307 16
a 8308 8309 40
a 8309 8569 25
a 8309 8308 40
a 8310 8311 28
a 8310 137 2
a 8310 8255 13
a 8311 8310 28
a 8312 8307 23
a 8313 8586 24
a 8314 11367 12
a 8314 3642 9
a 8314 10873 19
a 8315 12452 13
a 8316 4122 35
a 8316 4119 9
a 8316 4114 10
a 8317 7263 11
a 8317 8319 25
a 8317 2970 21
a 8318 10093 9
a 8318 2111 5
a 8318 2112 7
a 8319 8317 25
a 8320 6025 36
a 8321 10994 2
a 8321 12515 2
a 8321 7438 47
a 8322 10994 9
a 8322 7476 14
a 8322 11013 13
a 8323 7109 4
a 8323 5919 2
a 8323 9720 34
a 8324 9775 5
a 8324 5889 1
a 8324 5891 11
a 8325 11444 22
a 8326 7823 4
a 8326 9758 12
a 8326 11470 32
a 8327 4195 17
a 8328 9777 16
a 8328 9777 34
a 8328 9779 3
a 8329 5879 16
a 8329 5877 2
a 8329 5880 22
a 8330 7092 3
a 8330 7607 14
a 8330 3716 7
a 8331 5892 6
a 8332 5907 18
a 8332 11444 9
a 8332 5894 9
a 8333 10362 3
a 8333 8334 16
a 8333 11592 6
a 8333 7007 10
a 8334 8333 16
a 8335 8935 4
a 8336 4192 25
a 8337 3961 8
a 8338 3891 9
a 8338 9854 54
a 8339 8354 7
a 8340 9112 1
a 8340 10397 12
a 8341 6046 5
a 8342 11012 3
a 8342 8343 11
a 8342 7459 8
a 8343 8342 11
a 8343 5938 9
a 8343 5935 7
a 8344 8346 33
a 8345 12416 3
a 8345 8347 5
a 8346 7595 1
a 8346 8344 33
a 8346 3712 8
a 8347 8345 5
a 8348 13190 9
a 8348 2671 21
a 8348 3824 18
a 8349 2691 2
a 8349 7062 27
a 8350 2092 29
a 8350 2147 15
a 8351 12013 18
a 8351 11517 4
a 8352 7810 3
a 8352 8372 2
a 8353 11300 4
a 8353 8625 18
a 8353 7810 20
a 8354 7485 5
a 8354 6047 11
a 8354 8278 4
a 8354 8339 7
a 8355 4018 2
a 8355 3686 4
a 8355 3953 44
a 8356 7457 5
a 8356 7458 25
a 8356 12469 6
a 8357 7203 5
a 8357 7207 4
a 8357 8358 16
a 8358 8357 16
a 8359 5980 5
a 8359 5960 13
a 8359 5981 8
a 8360 8361 11
a 8360 12597 14
a 8360 12597 23
a 8361 8360 11
a 8361 2678 1
a 8361 2679 5
a 8362 12957 2
a 8362 12062 1
a 8362 12812 2
a 8363 12888 3
a 8363 7870 17
a 8363 7870 19
a 8364 3808 14
a 8365 3757 10
a 8365 7276 23
a 8366 1395 11
a 8366 8367 33
a 8366 1432 10
a 8367 1388 2
a 8367 1395 34
a 8367 8366 33
a 8368 8260 5
a 8368 3780 29
a 8368 3905 24
a 8368 3803 14
a 8369 1108 4
a 8369 1109 10
a 8369 8370 15
a 8370 2459 14
a 8370 1337 17
a 8370 8369 15
a 8371 1332 1
a 8371 1380 11
a 8372 7810 3
a 8372 7812 23
a 8373 11288 1
a 8374 10008 14
a 8375 4050 10
a 8375 2790 9
a 8375 8694 11
a 8375 11794 24
a 8376 3308 15
a 8376 11273 12
a 8376 12629 57
a 8378 2532 2
a 8378 2529 10
a 8379 7356 16
a 8380 8285 3
a 8380 9754 5
a 8380 7821 9
a 8381 3790 16
a 8381 4020 5
a 8381 3851 1
a 8382 3684 11
a 8382 4008 17
a 8382 4060 17
a 8382 3752 33
a 8383 9084 3
a 8383 8384 6
a 8384 13133 8
a 8385 8386 7
a 8385 9265 4
a 8385 6766 8
a 8386 8385 7
a 8386 9924 5
a 8386 6778 9
a 8387 8388 4
a 8387 8388 24
a 8387 9265 2
a 8388 8387 4
a 8388 8387 24
a 8388 9924 13
a 8388 6777 9
a 8389 6855 4
a 8389 12078 12
a 8389 11457 14
a 8389 10781 4
a 8390 9206 5
a 8391 6855 2
a 8391 8402 4
a 8391 6849 17
a 8392 6711 19
a 8393 9340 5
a 8393 6757 3
a 8393 9204 21
a 8394 11838 14
a 8395 8403 18
a 8396 6416 14
a 8397 8438 2
a 8397 9206 22
a 8397 9205 20
a 8398 6654 2
a 8398 10666 13
a 8398 6483 25
a 8399 6488 10
a 8400 6854 5
a 8400 11457 9
a 8400 11729 10
a 8401 8405 14
a 8401 9900 3
a 8401 11579 1
a 8402 8391 4
a 8402 11838 11
a 8402 11459 12
a 8403 7387 4
a 8403 8395 18
a 8403 7388 15
a 8404 11754 2
a 8405 6829 3
a 8405 8401 14
a 8405 12296 8
a 8406 6756 4
a 8406 6755 1
a 8406 9311 49
a 8407 101 4
a 8407 8988 19
a 8408 3265 2
a 8409 11435 7
a 8409 12414 17
a 8410 12103 2
a 8410 7874 9
a 8411 9467 2
a 8412 4834 13
a 8412 7723 72
a 8413 8414 14
a 8414 332 2
a 8414 723 11
a 8414 8413 14
a 8415 8794 12
a 8416 1656 7
a 8417 2176 7
a 8417 11545 6
a 8417 8418 14
a 8418 8417 14
a 8419 1213 7
a 8419 1217 4
a 8420 9113 1
a 8420 10003 3
a 8421 10003 6
a 8421 8420 3
a 8422 1573 2
a 8423 8536 1
a 8423 7410 2
a 8424 744 8
a 8425 8428 10
a 8425 6744 5
a 8426 9364 8
a 8426 9161 20
a 8426 6496 44
a 8427 9208 4
a 8427 10573 27
a 8427 8429 9
a 8428 6745 5
a 8428 8438 17
a 8429 9223 8
a 8429 8427 9
a 8429 4966 15
a 8430 732 2
a 8430 8435 12
a 8430 4971 8
a 8431 6389 16
a 8432 8436 12
a 8433 10570 6
a 8433 2943 8
a 8433 9225 14
a 8433 9226 9
a 8434 4158 12
a 8434 5118 23
a 8434 5117 13
a 8435 733 2
a 8435 7067 11
a 8435 8437 20
a 8436 11422 2
a 8436 1219 2
a 8437 6741 1
a 8437 8425 9
a 8437 6743 4
a 8438 6641 2
a 8438 8397 2
a 8438 12120 33
a 8439 11596 1
a 8439 9925 9
a 8439 11610 8
a 8440 8444 13
a 8441 6940 2
a 8441 6937 17
a 8442 11596 22
a 8442 6801 9
a 8442 13485 4
a 8443 9925 3
a 8444 6801 4
a 8444 8440 13
a 8444 6799 5
a 8445 11842 5
a 8445 9962 17
a 8445 8446 9
a 8446 8445 9
a 8447 7232 10
a 8447 7231 26
a 8447 8160 30
a 8448 932 4
a 8448 8449 10
a 8448 3206 5
a 8449 8448 10
a 8450 8451 62
a 8450 8451 32
a 8450 901 25
a 8451 8753 17
a 8451 8450 32
a 8451 8450 62
a 8452 638 22
a 8452 6989 4
a 8453 639 3
a 8453 1043 114
a 8453 638 24
a 8454 7186 17
a 8454 11118 4
a 8454 921 11
a 8455 13319 1
a 8455 8456 2
a 8455 9182 24
a 8456 8462 8
a 8456 8455 2
a 8456 8474 7
a 8457 10740 1
a 8457 8480 17
a 8457 10741 5
a 8458 12703 5
a 8458 8464 5
a 8458 8473 10
a 8459 7078 9
a 8459 7084 3
a 8459 8461 12
a 8460 12704 5
a 8460 12702 5
a 8460 8476 10
a 8461 8459 12
a 8461 8475 31
a 8461 11598 6
a 8462 8456 8
a 8462 8479 11
a 8462 12049 16
a 8463 8467 4
a 8463 13333 1
a 8463 6490 19
a 8464 8458 5
a 8464 10342 11
a 8464 8485 13
a 8465 7381 9
a 8465 8482 24
a 8465 8472 12
a 8466 8468 5
a 8466 8478 10
a 8466 8478 19
a 8467 8463 4
a 8467 13331 1
a 8467 6638 10
a 8468 8477 12
a 8468 8466 5
a 8468 13551 4
a 8468 7091 21
a 8469 10737 8
a 8469 8479 8
a 8469 10734 14
a 8470 8472 8
a 8470 7381 5
a 8470 7383 5
a 8471 6383 11
a 8471 6499 31
a 8471 9047 10
a 8472 8482 5
a 8472 8470 8
a 8472 8465 12
a 8473 12704 5
a 8473 8458 10
a 8473 8485 15
a 8474 13432 4
a 8474 8456 7
a 8474 10734 13
a 8475 8461 31
a 8476 12701 4
a 8476 12703 5
a 8476 8460 10
a 8477 8468 12
a 8477 7091 56
a 8477 8478 5
a 8478 8466 10
a 8478 8466 19
a 8478 8477 5
a 8479 8462 11
a 8479 8469 8
a 8479 13337 15
a 8480 12105 5
a 8480 13430 5
a 8480 13432 4
a 8480 8457 17
a 8481 8483 16
a 8481 12941 13
a 8481 12941 24
a 8482 8472 5
a 8482 7383 18
a 8482 8465 24
a 8483 8481 16
a 8484 9047 9
a 8485 10341 9
a 8485 8473 15
a 8485 8464 13
a 8486 8487 8
a 8487 6409 8
a 8487 8486 8
a 8487 11518 33
a 8488 9162 9
a 8488 6548 14
a 8488 9137 7
a 8489 12721 13
a 8489 12721 27
a 8489 9314 12
a 8490 8182 8
a 8490 5697 8
a 8490 11151 23
a 8491 13261 7
a 8491 5697 25
a 8491 8183 8
a 8492 211 28
a 8492 210 10
a 8492 196 13
a 8493 8495 9
a 8493 220 17
a 8493 8496 21
a 8494 12785 14
a 8494 217 10
a 8494 8496 22
a 8495 8493 9
a 8495 8497 8
a 8495 215 14
a 8496 8497 15
a 8496 8494 22
a 8496 8493 21
a 8497 8495 8
a 8497 8496 15
a 8497 11673 14
a 8498 213 13
a 8499 2322 8
a 8500 8507 1
a 8500 781 16
a 8500 11204 40
a 8501 8503 57
a 8502 774 24
a 8502 13379 2
a 8503 765 22
a 8503 8501 57
a 8503 11024 24
a 8504 820 12
a 8504 8013 3
a 8505 783 3
a 8505 8508 3
a 8505 784 108
a 8506 3569 52
a 8507 8500 1
a 8507 8508 23
a 8507 9860 13
a 8508 8505 3
a 8508 8507 23
a 8508 783 3
a 8509 7255 3
a 8510 5315 6
a 8510 5371 25
a 8510 5374 11
a 8511 7840 2
a 8511 7839 9
a 8512 8513 1
a 8513 8421 1
a 8513 1636 6
a 8514 1102 1
a 8514 8512 2
a 8515 24 23
a 8516 2628 9
a 8516 7024 32
a 8517 736 8
a 8518 7350 24
a 8518 8649 9
a 8518 12558 2
a 8519 2516 44
a 8519 2807 8
a 8519 2500 11
a 8520 2499 15
a 8520 2503 34
a 8520 2503 28
a 8521 460 14
a 8521 6923 4
a 8522 6260 37
a 8522 6260 20
a 8522 6261 16
a 8523 104 26
a 8524 5288 31
a 8524 11375 5
a 8524 5291 25
a 8525 11378 10
a 8525 8539 32
a 8525 12384 2
a 8526 11371 14
a 8526 5294 43
a 8526 11200 13
a 8527 13234 7
a 8527 5288 16
a 8527 11372 27
a 8528 3701 14
a 8529 3850 6
a 8529 12098 90
a 8529 8533 13
a 8530 8531 2
a 8530 7598 10
a 8530 10442 23
a 8531 10446 3
a 8531 7600 6
a 8531 8530 2
a 8532 12804 1
a 8532 4035 9
a 8532 3934 10
a 8533 8529 13
a 8533 13226 11
a 8533 4064 26
a 8534 4146 7
a 8534 8613 67
a 8534 6894 12
a 8535 8423 1
a 8535 7416 2
a 8536 7412 2
a 8536 8728 1
a 8537 13231 3
a 8537 10983 2
a 8537 13232 4
a 8538 5294 8
a 8539 8542 8
a 8539 8614 1
a 8539 8525 32
a 8540 11270 20
a 8540 8542 57
a 8540 4264 14
a 8541 8653 8
a 8541 8542 20
a 8541 8571 23
a 8542 8539 8
a 8542 8541 20
a 8542 8540 57
a 8543 8544 15
a 8544 8543 15
a 8544 3658 9
a 8544 8545 11
a 8545 8546 8
a 8545 8544 11
a 8545 276 16
a 8546 8545 8
a 8547 4064 16
a 8548 9256 9
a 8548 6812 24
a 8548 6796 27
a 8549 6955 1
a 8549 1920 17
a 8549 1917 69
a 8549 1922 13
a 8550 7926 13
a 8550 7926 33
a 8550 7923 38
a 8551 8555 27
a 8552 8553 25
a 8553 12857 8
a 8553 8552 25
a 8553 8556 29
a 8554 8555 10
a 8555 8554 10
a 8555 8551 27
a 8555 8556 18
a 8556 8557 9
a 8556 8553 29
a 8556 8555 18
a 8557 2794 9
a 8557 2709 9
a 8557 8556 9
a 8558 8559 9
a 8558 8560 13
a 8558 7825 15
a 8559 7826 10
a 8559 8558 9
a 8559 10285 20
a 8560 8558 13
a 8561 7826 14
a 8562 8564 11
a 8563 4259 15
a 8564 8562 11
a 8564 12095 5
a 8564 7595 27
a 8565 6007 15
a 8566 8567 2
a 8566 3728 13
a 8567 8566 2
a 8567 4051 19
a 8568 7951 18
a 8568 7955 5
a 8568 9797 8
a 8568 12580 13
a 8569 8351 9
a 8569 11152 2
a 8570 3254 6
a 8571 8541 23
a 8572 11453 2
a 8572 9901 2
a 8573 9584 2
a 8573 2761 12
a 8574 3122 5
a 8574 8575 5
a 8574 11607 4
a 8574 10584 9
a 8575 8574 5
a 8575 10585 4
a 8575 10586 12
a 8576 11143 1
a 8576 11144 4
a 8577 11301 11
a 8578 3040 2
a 8578 7 4
a 8579 8137 3
a 8582 8041 2
a 8582 7352 29
a 8582 8581 5
a 8583 5486 9
a 8583 5650 7
a 8583 5710 12
a 8584 5506 20
a 8585 6000 2
a 8585 5995 3
a 8585 6001 12
a 8586 4118 10
a 8586 11367 1
a 8586 8313 24
a 8587 4109 10
a 8588 5502 21
a 8589 10188 31
a 8590 3222 3
a 8590 2726 7
a 8590 2724 13
a 8591 4488 2
a 8591 8593 8
a 8592 8594 18
a 8592 3477 2
a 8592 3432 16
a 8593 12325 1
a 8593 12326 5
a 8594 3438 8
a 8594 3485 1
a 8594 9935 8
a 8595 8596 5
a 8595 4287 1
a 8595 4547 14
a 8596 4529 2
a 8596 8597 6
a 8597 4341 2
a 8597 8591 6
a 8598 8600 14
a 8599 3470 2
a 8599 8592 6
a 8599 3431 11
a 8600 3489 8
a 8600 3475 1
a 8600 8599 22
a 8601 10947 33
a 8602 11512 9
a 8602 8604 6
a 8602 11511 11
a 8603 11533 14
a 8603 11536 6
a 8603 8607 4
a 8604 8608 6
a 8604 11513 9
a 8604 8602 6
a 8605 12236 6
a 8605 11514 6
a 8605 12585 5
a 8606 12585 3
a 8607 8603 4
a 8607 8608 7
a 8607 12586 11
a 8608 8604 6
a 8608 12047 6
a 8608 8607 7
a 8609 7275 6
a 8609 8716 16
a 8609 7839 13
a 8610 11520 4
a 8610 10009 38
a 8611 8612 12
a 8611 8612 23
a 8611 3872 13
a 8612 8611 12
a 8612 8611 23
a 8612 3674 16
a 8613 8534 67
a 8614 8539 1
a 8615 52 7
a 8615 1530 9
a 8616 1542 16
a 8617 12418 1
a 8617 8616 3
a 8618 117 9
a 8618 13139 3
a 8619 10970 7
a 8619 8639 13
a 8619 8638 5
a 8620 3605 29
a 8620 12796 6
a 8621 5348 20
a 8622 2556 11
a 8622 2548 26
a 8622 8623 13
a 8623 2547 17
a 8623 2535 16
a 8624 9086 12
a 8624 11525 9
a 8624 11528 2
a 8625 139 2
a 8625 11525 9
a 8626 13080 1
a 8627 8630 10
a 8628 8633 36
a 8628 8629 54
a 8628 13445 38
a 8629 4141 7
a 8629 5220 35
a 8629 8628 54
a 8629 5219 47
a 8630 8632 12
a 8630 3797 6
a 8630 8627 10
a 8631 8633 13
a 8632 8630 12
a 8632 8633 15
a 8632 10971 12
a 8633 8631 13
a 8633 8632 15
a 8633 8628 36
a 8634 7264 8
a 8635 8636 9
a 8636 13613 2
a 8636 8635 9
a 8636 3762 9
a 8637 4141 14
a 8638 13567 4
a 8638 8619 5
a 8638 10974 9
a 8639 8619 13
a 8640 8641 7
a 8640 5236 24
a 8640 5239 20
a 8641 8640 7
a 8642 10792 23
a 8642 2308 7
a 8643 1141 4
a 8643 12882 12
a 8644 1085 1
a 8644 8643 10
a 8645 8919 3
a 8645 5232 10
a 8645 10207 29
a 8646 8648 7
a 8646 8647 4
a 8646 8650 22
a 8647 8646 4
a 8647 9100 23
a 8647 8104 8
a 8648 11488 6
a 8648 8646 7
a 8648 13380 21
a 8649 8103 3
a 8649 8518 9
a 8649 12557 1
a 8650 8104 12
a 8650 8103 19
a 8651 7300 2
a 8651 7298 17
a 8651 7301 19
a 8652 8653 10
a 8653 8541 8
a 8653 8652 10
a 8653 11912 4
a 8654 1102 1
a 8654 10002 1
a 8655 2301 4
a 8656 8658 5
a 8656 8657 12
a 8656 5338 30
a 8657 10968 5
a 8657 8656 12
a 8657 10964 8
a 8658 8656 5
a 8658 10972 6
a 8658 5316 15
a 8659 11200 23
a 8660 4238 45
a 8661 7801 2
a 8662 8663 18
a 8663 9855 18
a 8663 3907 17
a 8663 8662 18
a 8664 12579 2
a 8664 2963 7
a 8665 1008 6
a 8665 13153 4
a 8665 8163 16
a 8666 1268 4
a 8667 5243 4
a 8667 8666 6
a 8668 11477 1
a 8668 10442 2
a 8668 8531 23
a 8669 660 3
a 8669 9867 4
a 8670 192 5
a 8670 191 27
a 8670 193 12
a 8671 11063 2
a 8671 11062 1
a 8672 7351 11
a 8672 12651 7
a 8672 8673 8
a 8673 8672 8
a 8673 12159 2
a 8673 4054 18
a 8674 4083 3
a 8675 4127 3
a 8675 10919 3
a 8676 4125 16
a 8677 589 19
a 8677 590 19
a 8677 11938 44
a 8678 574 21
a 8678 8682 12
a 8678 8679 47
a 8679 296 11
a 8679 13336 9
a 8679 8678 47
a 8679 8684 11
a 8680 8681 11
a 8680 14 51
a 8680 3002 34
a 8680 296 11
a 8681 297 13
a 8681 8680 11
a 8681 303 51
a 8681 3105 47
a 8682 8678 12
a 8682 8683 28
a 8682 3031 13
a 8683 2417 35
a 8683 8682 28
a 8683 8684 20
a 8684 8683 20
a 8684 301 51
a 8684 8679 11
a 8684 300 14
a 8685 8807 5
a 8685 12281 3
a 8686 12221 2
a 8686 10913 14
a 8687 2666 1
a 8687 8689 15
a 8687 2704 55
a 8688 8690 9
a 8689 8690 5
a 8689 11039 21
a 8689 8687 15
a 8690 10931 4
a 8690 8689 5
a 8690 8688 9
a 8691 11594 12
a 8691 2670 23
a 8691 2705 28
a 8692 11594 1
a 8693 2709 36
a 8694 8375 11
a 8695 3961 8
a 8696 2668 6
a 8697 2669 12
a 8697 8698 12
a 8697 2668 27
a 8698 8697 12
a 8698 8706 21
a 8698 2699 28
a 8699 11362 10
a 8699 12591 25
a 8699 11503 27
a 8700 8703 15
a 8700 8702 4
a 8700 12591 6
a 8701 4007 7
a 8701 11848 7
a 8701 11248 9
a 8702 8705 15
a 8702 8700 4
a 8702 13185 4
a 8703 13184 5
a 8703 8700 15
a 8703 8705 4
a 8703 11848 6
a 8704 13185 1
a 8704 11666 8
a 8704 12007 4
a 8705 12015 5
a 8705 8702 15
a 8705 11847 4
a 8705 8703 4
a 8706 8707 13
a 8706 2704 31
a 8706 8698 21
a 8706 2664 14
a 8707 11604 26
a 8707 8706 13
a 8707 2634 16
a 8707 2663 13
a 8708 1666 3
a 8708 9817 55
a 8708 4623 10
a 8709 135 8
a 8710 3251 42
a 8710 10144 11
a 8711 2356 1
a 8711 12361 2
a 8711 6893 11
a 8712 6048 6
a 8712 8713 5
a 8712 8278 5
a 8712 6049 11
a 8713 8712 5
a 8714 6946 2
a 8714 12312 45
a 8714 2355 4
a 8715 10142 8
a 8716 8717 36
a 8716 8609 16
a 8717 2777 16
a 8717 8716 36
a 8718 5933 12
a 8719 8720 5
a 8720 8723 4
a 8720 9004 15
a 8720 8719 5
a 8721 8724 10
a 8722 12644 13
a 8723 12644 6
a 8723 8720 4
a 8723 3310 127
a 8724 8721 10
a 8724 4140 4
a 8724 12644 3
a 8725 2079 26
a 8726 7300 2
a 8727 7301 1
a 8728 8535 1
a 8728 7414 4
a 8729 7701 2
a 8729 7700 9
a 8729 13212 13
a 8730 13104 1
a 8731 11189 21
a 8732 13178 9
a 8732 3907 10
a 8732 3795 21
a 8733 3828 9
a 8734 4762 15
a 8734 4608 18
a 8735 9642 9
a 8735 12046 26
a 8736 4727 7
a 8736 8737 26
a 8737 6971 17
a 8737 4635 2
a 8737 8738 58
a 8737 8736 26
a 8738 6891 2
a 8738 4741 19
a 8739 8959 10
a 8740 8744 5
a 8740 8741 9
a 8740 8237 38
a 8741 8959 6
a 8741 8740 9
a 8741 8235 60
a 8742 8744 6
a 8743 8744 7
a 8744 8740 5
a 8744 8742 6
a 8744 8743 7
a 8745 10489 79
a 8745 8989 11
a 8745 7799 11
a 8746 12337 1
a 8746 5525 6
a 8746 5689 10
a 8747 7185 24
a 8748 13102 6
a 8749 13102 18
a 8750 8929 5
a 8750 7304 38
a 8751 8752 15
a 8752 8751 15
a 8752 7680 26
a 8753 8451 17
a 8753 7305 12
a 8754 12746 3
a 8754 11889 3
a 8755 750 53
a 8755 124 12
a 8756 8795 7
a 8756 10146 3
a 8757 10146 3
a 8757 11298 8
a 8758 7283 8
a 8759 8763 15
a 8759 7428 33
a 8759 4807 19
a 8760 6931 6
a 8761 7425 9
a 8761 8776 7
a 8761 8762 41
a 8762 7426 32
a 8762 8761 41
a 8762 4786 13
a 8763 8765 27
a 8763 8764 13
a 8763 8759 15
a 8764 8763 13
a 8764 6936 7
a 8764 7428 38
a 8765 8763 27
a 8765 4784 10
a 8765 6937 26
a 8766 8767 9
a 8766 4787 33
a 8766 7496 23
a 8767 7497 9
a 8767 8766 9
a 8767 7496 33
a 8768 6937 2
a 8768 6939 2
a 8769 11667 57
a 8770 4785 9
a 8770 4788 7
a 8770 7429 59
a 8771 4785 13
a 8772 5335 3
a 8772 5372 16
a 8772 11735 36
a 8773 11241 12
a 8773 11835 23
a 8773 11759 20
a 8774 3541 34
a 8774 11836 6
a 8774 3603 7
a 8775 5376 4
a 8775 5337 21
a 8775 5334 26
a 8775 13484 8
a 8776 8761 7
a 8777 10095 46
a 8777 7363 11
a 8777 7504 20
a 8778 1330 5
a 8778 8777 11
a 8778 10095 11
a 8779 4269 2
a 8780 2222 10
a 8781 11836 36
a 8781 11735 10
a 8781 5372 58
a 8782 1224 10
a 8782 13534 6
a 8783 11436 39
a 8784 6947 7
a 8784 10884 9
a 8784 8911 18
a 8785 7764 4
a 8786 3960 6
a 8786 4074 28
a 8787 3778 3
a 8788 1222 4
a 8788 13009 22
a 8788 9891 7
a 8789 6788 14
a 8789 6787 19
a 8789 6786 8
a 8790 6786 10
a 8791 8196 1
a 8791 8210 6
a 8791 8206 35
a 8792 8205 18
a 8792 12177 5
a 8792 8189 10
a 8793 5559 16
a 8794 11149 1
a 8794 4034 21
a 8795 12213 6
a 8796 8033 12
a 8797 9430 43
a 8797 7487 5
a 8798 13616 10
a 8798 8799 20
a 8798 8028 17
a 8799 8026 26
a 8799 12006 11
a 8799 8798 20
a 8800 6959 17
a 8800 11334 3
a 8801 8804 6
a 8801 13393 26
a 8801 13395 5
a 8802 13382 17
a 8802 11202 43
a 8802 13390 6
a 8803 8032 10
a 8804 8032 1
a 8804 11589 40
a 8804 8801 6
a 8805 12592 2
a 8805 13265 2
a 8806 3251 2
a 8806 8936 40
a 8807 8806 5
a 8807 9297 29
a 8808 11487 10
a 8809 8813 1
a 8809 8812 17
a 8810 10922 1
a 8810 11764 8
a 8810 11757 16
a 8811 8815 6
a 8812 8809 17
a 8812 8814 16
a 8812 8815 11
a 8813 7762 3
a 8813 8814 26
a 8814 8813 26
a 8814 11487 1
a 8814 8812 16
a 8815 8811 6
a 8815 8812 11
a 8815 10922 8
a 8815 11146 12
a 8816 13559 1
a 8816 277 11
a 8816 8817 5
a 8817 10943 10
a 8817 2184 3
a 8817 8816 5
a 8818 8819 7
a 8818 13559 11
a 8818 12740 2
a 8819 13559 9
a 8819 8818 7
a 8819 10943 12
a 8820 4099 4
a 8821 8988 3
a 8821 101 19
a 8822 825 15
a 8822 9990 36
a 8823 12601 2
a 8823 7857 9
a 8823 12602 2
a 8824 2643 1
a 8824 2637 10
a 8824 12019 18
a 8825 8826 9
a 8825 2086 36
a 8826 2091 7
a 8826 2083 19
a 8826 2089 9
a 8826 8825 9
a 8827 8828 23
a 8828 2102 21
a 8828 892 9
a 8828 8827 23
a 8829 3992 6
a 8829 3645 15
a 8829 9066 18
a 8830 10446 2
a 8830 8530 4
a 8831 8830 4
a 8831 8830 13
a 8832 7407 2
a 8832 7411 9
a 8832 3218 13
a 8833 7404 2
a 8833 865 1
a 8834 4384 37
a 8835 3192 12
a 8836 6946 5
a 8836 9065 1
a 8836 13266 4
a 8837 9417 2
a 8837 2081 23
a 8837 11578 60
a 8838 3650 12
a 8838 3683 11
a 8838 3902 29
a 8838 3676 32
a 8839 3676 12
a 8839 3644 24
a 8839 3650 16
a 8839 3685 27
a 8840 3672 16
a 8840 3676 12
a 8840 3734 35
a 8841 8842 7
a 8842 3799 12
a 8842 8841 7
a 8842 3773 39
a 8843 10031 18
a 8843 3619 17
a 8843 3799 16
a 8844 3968 14
a 8844 8845 10
a 8844 3895 41
a 8845 8844 10
a 8845 4049 14
a 8845 3675 25
a 8846 3633 33
a 8846 3947 45
a 8846 3968 13
a 8847 8856 3
a 8847 8864 3
a 8847 8883 8
a 8848 8856 8
a 8848 8883 3
a 8848 8871 3
a 8849 8865 6
a 8849 8865 57
a 8849 7489 17
a 8850 8881 8
a 8850 8854 8
a 8850 8857 3
a 8851 8867 4
a 8852 8875 4
a 8853 8864 8
a 8853 8883 3
a 8853 8944 11
a 8854 8850 8
a 8854 8858 4
a 8854 8882 16
a 8855 8862 13
a 8855 8857 4
a 8855 8858 4
a 8856 8848 8
a 8856 8857 3
a 8856 8847 3
a 8857 8850 3
a 8857 8856 3
a 8857 8871 8
a 8857 8855 4
a 8858 8854 4
a 8858 8859 4
a 8858 8855 4
a 8858 8882 12
a 8859 8870 12
a 8859 8858 4
a 8859 8873 4
a 8860 8868 5
a 8860 8872 4
a 8860 8873 4
a 8861 8867 14
a 8861 5328 8
a 8861 11113 35
a 8862 8879 4
a 8862 8944 4
a 8862 8855 13
a 8863 5328 17
a 8863 13481 4
a 8863 13480 4
a 8864 8847 3
a 8864 8944 3
a 8864 8853 8
a 8865 8849 6
a 8865 8849 57
a 8865 13307 15
a 8866 8869 23
a 8867 8861 14
a 8867 8851 4
a 8867 12642 10
a 8868 8860 5
a 8868 8877 4
a 8868 8879 4
a 8868 10203 10
a 8869 12020 5
a 8869 6003 10
a 8869 8875 11
a 8869 8866 23
a 8870 8859 12
a 8870 8882 4
a 8870 8880 4
a 8871 8857 8
a 8871 8848 3
a 8871 8881 4
a 8872 8877 5
a 8872 8880 4
a 8872 8860 4
a 8873 8859 4
a 8873 8879 5
a 8873 8860 4
a 8874 8875 46
a 8875 8852 4
a 8875 8869 11
a 8875 8874 46
a 8876 13481 6
a 8877 8872 5
a 8877 8868 4
a 8877 8880 9
a 8878 7695 12
a 8879 8868 4
a 8879 8862 4
a 8879 8873 5
a 8880 8872 4
a 8880 8870 4
a 8880 8877 9
a 8881 8850 8
a 8881 8871 4
a 8881 11647 8
a 8882 8858 12
a 8882 8870 4
a 8882 8854 16
a 8883 8847 8
a 8883 8853 3
a 8883 8848 3
a 8884 4329 2
a 8885 10716 4
a 8885 10718 3
a 8885 8889 4
a 8886 8887 1
a 8886 8889 1
a 8886 10718 4
a 8887 8886 1
a 8888 4380 8
a 8888 4335 4
a 8888 12963 2
a 8889 12959 1
a 8889 8886 1
a 8889 8885 4
a 8890 8898 9
a 8890 8894 3
a 8890 5124 36
a 8891 8895 8
a 8892 4390 6
a 8892 4515 10
a 8892 4359 25
a 8893 5114 2
a 8893 8901 8
a 8893 5125 14
a 8894 8890 3
a 8894 8905 1
a 8894 8897 12
a 8895 8891 8
a 8895 8900 32
a 8895 5119 11
a 8896 8901 17
a 8897 8894 12
a 8898 8890 9
a 8899 5119 11
a 8899 13005 17
a 8899 10539 45
a 8900 8895 32
a 8901 8896 17
a 8901 8905 21
a 8901 8893 8
a 8902 9363 26
a 8902 8903 15
a 8902 9289 14
a 8903 8902 15
a 8903 6521 3
a 8903 9173 10
a 8904 9163 9
a 8904 12692 1
a 8904 11279 4
a 8905 8894 1
a 8905 9171 2
a 8905 8901 21
a 8906 6618 9
a 8906 6653 30
a 8906 6678 58
a 8907 8908 4
a 8907 545 22
a 8907 549 19
a 8908 8907 4
a 8909 2005 6
a 8909 8071 8
a 8909 7582 23
a 8910 7464 3
a 8910 1634 1
a 8911 8940 13
a 8911 11665 12
a 8911 8784 18
a 8912 6029 2
a 8913 4111 5
a 8914 9500 14
a 8914 6922 34
a 8914 1539 48
a 8914 20 14
a 8915 585 43
a 8915 3127 11
a 8915 3053 15
a 8916 8919 12
a 8917 11586 28
a 8917 3762 1
a 8917 3794 22
a 8918 3952 10
a 8918 2677 9
a 8918 8920 27
a 8919 5233 11
a 8919 8645 3
a 8919 8916 12
a 8920 8918 27
a 8921 2680 43
a 8922 2648 13
a 8923 7642 22
a 8923 605 26
a 8923 7643 21
a 8924 8925 19
a 8924 609 24
a 8924 7643 11
a 8925 8924 19
a 8925 9945 8
a 8926 8925 20
a 8926 623 17
a 8927 7578 23
a 8928 8517 10
a 8928 1526 11
a 8929 622 20
a 8929 1493 39
a 8930 7716 21
a 8931 11916 4
a 8931 4061 2
a 8932 8934 2
a 8932 12135 7
a 8933 13017 19
a 8934 8933 2
a 8934 12136 4
a 8935 3958 16
a 8935 3635 13
a 8935 8335 4
a 8936 8937 1
a 8936 8806 40
a 8937 8938 5
a 8937 8938 48
a 8938 8937 48
a 8938 8261 7
a 8939 8940 3
a 8939 12662 25
a 8939 9513 6
a 8940 8911 13
a 8940 8939 3
a 8940 6947 7
a 8941 9509 6
a 8941 9514 7
a 8941 6948 13
a 8942 4256 3
a 8943 6006 19
a 8944 8862 4
a 8944 8864 3
a 8944 8853 11
a 8944 10203 16
a 8945 8947 11
a 8945 8946 27
a 8946 2016 22
a 8946 8949 6
a 8946 8945 27
a 8947 8948 3
a 8947 8945 11
a 8947 2812 34
a 8947 8949 33
a 8948 2811 30
a 8948 8950 7
a 8948 8947 3
a 8949 8946 6
a 8949 3062 6
a 8949 8947 33
a 8950 13018 6
a 8950 8948 7
a 8950 2171 28
a 8950 3062 26
a 8951 2920 19
a 8951 2165 28
a 8951 3163 28
a 8952 7662 2
a 8952 2990 39
a 8952 2920 5
a 8953 8954 6
a 8954 8953 6
a 8954 8955 10
a 8954 3147 13
a 8955 8954 10
a 8955 2404 5
a 8955 2991 17
a 8956 7598 9
a 8957 6283 8
a 8957 6290 9
a 8957 6291 20
a 8958 6282 16
a 8958 6290 11
a 8958 6289 11
a 8959 12569 3
a 8959 8741 6
a 8959 8739 10
a 8960 373 15
a 8960 7771 21
a 8960 681 18
a 8961 8968 2
a 8962 8961 2
a 8962 13353 2
a 8963 10837 10
a 8964 12145 1
a 8964 8963 3
a 8965 10821 2
a 8965 11156 2
a 8965 9575 13
a 8966 3522 1
a 8966 9951 25
a 8967 12727 22
a 8967 7284 28
a 8967 224 15
a 8968 9690 27
a 8969 8962 3
a 8969 10094 6
a 8970 8971 18
a 8970 8082 8
a 8971 8970 18
a 8971 549 25
a 8971 1284 12
a 8972 12275 1
a 8972 7737 21
a 8973 9749 18
a 8973 3001 10
a 8973 1070 14
a 8974 1025 7
a 8974 1030 7
a 8974 7650 41
a 8975 1865 7
a 8976 3301 5
a 8977 3299 4
a 8978 3282 4
a 8979 3570 26
a 8980 3407 4
a 8981 3397 4
a 8982 11718 3
a 8982 11719 12
a 8982 11717 10
a 8983 8984 9
a 8983 6862 7
a 8983 8985 5
a 8983 11718 4
a 8984 6858 4
a 8984 11719 4
a 8984 8983 9
a 8985 6860 7
a 8985 6858 9
a 8985 8987 5
a 8985 8983 5
a 8986 3390 9
a 8986 12203 3
a 8986 6859 10
a 8987 8985 5
a 8987 3389 9
a 8987 6861 7
a 8988 8821 3
a 8988 785 6
a 8988 10150 18
a 8989 8990 43
a 8989 13141 14
a 8989 8745 11
a 8990 9550 13
a 8990 8989 43
a 8990 9554 10
a 8991 9546 8
a 8991 9554 9
a 8991 10364 12
a 8992 5841 15
a 8993 2103 9
a 8993 7040 9
a 8993 2097 10
a 8994 10162 26
a 8994 5244 34
a 8995 8996 10
a 8995 8121 14
a 8995 8119 33
a 8996 245 18
a 8996 8995 10
a 8997 2747 2
a 8998 2747 2
a 8999 2782 7
a 9000 6737 7
a 9000 9077 10
a 9000 10625 44
a 9001 10205 2
a 9001 3311 15
a 9001 9002 56
a 9002 3311 6
a 9002 4140 4
a 9002 9001 56
a 9003 4282 8
a 9004 8720 15
a 9004 9044 10
a 9004 9005 50
a 9005 9004 50
a 9006 4272 1
a 9006 13253 2
a 9006 7912 14
a 9007 11875 12
a 9007 5776 11
a 9007 5775 10
a 9008 9009 10
a 9008 5776 23
a 9008 5776 12
a 9009 9011 8
a 9009 9008 10
a 9009 5775 18
a 9010 5766 10
a 9010 5766 30
a 9010 5767 9
a 9011 5760 8
a 9011 9009 8
a 9011 5761 21
a 9012 6195 21
a 9013 6229 12
a 9014 11536 8
a 9014 9015 8
a 9014 9016 18
a 9015 9014 8
a 9015 7840 41
a 9015 13422 19
a 9016 9014 18
a 9017 11511 1
a 9017 11212 18
a 9017 9018 36
a 9018 9017 36
a 9019 4048 22
a 9020 3857 2
a 9021 9023 9
a 9021 7677 31
a 9021 9880 13
a 9022 9024 12
a 9022 1034 19
a 9022 9888 6
a 9023 7677 25
a 9023 7679 16
a 9023 9021 9
a 9024 3132 16
a 9024 9022 12
a 9025 7374 20
a 9025 7374 3
a 9025 6653 30
a 9026 6869 11
a 9026 9027 9
a 9026 6870 7
a 9027 6874 6
a 9027 6476 9
a 9027 9026 9
a 9028 3674 2
a 9029 12412 1
a 9029 12297 7
a 9029 12410 5
a 9030 9736 87
a 9030 9947 2
a 9031 9735 66
a 9031 9030 4
a 9032 747 1
a 9032 9033 4
a 9033 13413 1
a 9034 9036 8
a 9034 1012 9
a 9034 1021 10
a 9034 1004 51
a 9035 965 9
a 9035 959 9
a 9035 973 11
a 9035 895 29
a 9036 9034 8
a 9036 1020 9
a 9036 1013 8
a 9036 963 9
a 9037 10232 29
a 9038 7712 47
a 9038 7714 10
a 9039 6027 1
a 9040 9044 12
a 9041 4568 48
a 9042 1456 23
a 9042 1455 28
a 9042 1453 17
a 9043 11420 14
a 9043 5341 28
a 9044 12401 19
a 9044 9004 10
a 9044 9040 12
a 9045 8340 3
a 9045 11680 27
a 9046 6415 23
a 9046 6577 8
a 9046 7324 10
a 9047 8484 9
a 9047 6663 10
a 9047 8471 10
a 9048 6460 5
a 9048 6623 26
a 9048 9085 9
a 9049 9170 10
a 9049 9153 5
a 9049 9085 23
a 9050 6460 2
a 9050 6626 10
a 9050 9051 11
a 9051 9050 11
a 9052 548 4
a 9052 1245 1
a 9052 9053 23
a 9053 11245 4
a 9053 8071 7
a 9053 9052 23
a 9054 5241 8
a 9054 12277 1
a 9054 10062 8
a 9055 1071 24
a 9055 7574 18
a 9055 7575 28
a 9056 11150 11
a 9057 9058 5
a 9058 12647 10
a 9058 9057 5
a 9058 9059 6
a 9059 9058 6
a 9060 12553 1
a 9060 4251 7
a 9061 12203 3
a 9061 3388 66
a 9061 5298 13
a 9062 5295 51
a 9062 13268 33
a 9062 9063 28
a 9063 13268 4
a 9063 11417 7
a 9063 9062 28
a 9064 13269 3
a 9064 9065 18
a 9064 11417 10
a 9065 8836 1
a 9065 9064 18
a 9065 3368 15
a 9066 8829 18
a 9067 6384 10
a 9068 253 12
a 9068 65 3
a 9069 6959 2
a 9069 6924 20
a 9070 12499 1
a 9071 7966 11
a 9071 2934 6
a 9072 7515 3
a 9072 9656 5
a 9073 1870 5
a 9073 9697 31
a 9074 12328 14
a 9074 7277 8
a 9075 6737 8
a 9075 6612 9
a 9075 12044 26
a 9076 9077 41
a 9077 6595 3
a 9077 9000 10
a 9077 9076 41
a 9078 291 7
a 9078 12293 3
a 9079 3769 39
a 9080 3717 23
a 9081 10660 2
a 9081 7087 6
a 9081 12104 26
a 9082 7758 12
a 9082 6791 18
a 9083 8910 1
a 9084 9083 1
a 9084 8384 2
a 9085 9049 23
a 9085 9170 16
a 9085 9048 9
a 9086 8624 12
a 9087 7930 11
a 9087 9088 2
a 9087 9090 18
a 9088 9087 2
a 9088 7811 3
a 9088 12141 30
a 9089 7811 4
a 9089 12141 5
a 9089 9092 20
a 9090 9087 18
a 9091 7811 20
a 9091 9094 20
a 9091 9092 4
a 9092 9095 20
a 9092 9089 20
a 9092 9093 10
a 9092 9091 4
a 9093 9092 10
a 9094 9095 4
a 9094 9091 20
a 9094 11996 3
a 9095 9094 4
a 9095 9092 20
a 9095 9096 10
a 9096 9095 10
a 9097 9098 6
a 9098 9097 6
a 9098 9101 4
a 9098 9099 41
a 9099 9098 41
a 9100 8104 34
a 9100 9101 4
a 9100 8647 23
a 9101 9098 4
a 9101 8030 14
a 9101 9100 4
a 9102 8102 10
a 9103 8029 9
a 9103 8031 24
a 9103 9104 23
a 9104 8031 7
a 9104 8105 35
a 9105 12039 12
a 9105 2403 10
a 9105 2907 8
a 9106 1532 8
a 9106 155 21
a 9106 1533 8
a 9107 5863 5
a 9107 5867 4
a 9107 5666 23
a 9107 11269 38
a 9108 3931 9
a 9108 5994 49
a 9108 3980 8
a 9109 13167 5
a 9109 7224 9
a 9110 11355 1
a 9110 2496 8
a 9110 7639 40
a 9111 9184 3
a 9111 7094 30
a 9111 3638 19
a 9112 9582 1
a 9112 8415 3
a 9113 8654 1
a 9113 8422 3
a 9114 3315 9
a 9115 12365 1
a 9115 9114 3
a 9116 3766 13
a 9116 11624 6
a 9116 11626 2
a 9117 1651 9
a 9117 1637 9
a 9118 240 11
a 9118 9121 14
a 9119 9118 18
a 9119 9120 19
a 9120 242 13
a 9120 9119 19
a 9121 8996 3
a 9121 9118 14
a 9122 11828 28
a 9123 7857 9
a 9123 9124 6
a 9123 13427 5
a 9124 9123 6
a 9125 3917 19
a 9125 3917 28
a 9125 9645 19
a 9126 10429 12
a 9126 5827 20
a 9126 12625 15
a 9127 5833 18
a 9128 6410 15
a 9128 6451 16
a 9128 12630 30
a 9129 4166 10
a 9129 6524 11
a 9129 5041 22
a 9130 4163 7
a 9130 9130 12
a 9131 9276 9
a 9131 9154 42
a 9131 6764 24
a 9132 6396 8
a 9132 6453 22
a 9132 9325 15
a 9133 6391 4
a 9134 6684 25
a 9135 6694 18
a 9135 6543 11
a 9135 10636 14
a 9136 6556 3
a 9137 8488 7
a 9137 11791 18
a 9137 9580 31
a 9138 6474 12
a 9139 6474 11
a 9139 13531 2
a 9140 11787 3
a 9140 6461 5
a 9140 6595 32
a 9141 9595 73
a 9141 6461 39
a 9141 9594 8
a 9142 6454 8
a 9143 7367 21
a 9144 6686 2
a 9144 9203 9
a 9144 6492 11
a 9145 6541 3
a 9145 6652 11
a 9146 13531 2
a 9146 9147 7
a 9147 13532 2
a 9147 9145 14
a 9148 12696 11
a 9148 6557 53
a 9148 6472 13
a 9149 11920 12
a 9149 6523 50
a 9149 4157 19
a 9150 4170 6
a 9150 6590 19
a 9150 9151 14
a 9151 9150 14
a 9152 9321 11
a 9153 9155 10
a 9153 9049 5
a 9153 11423 20
a 9154 9131 42
a 9155 9153 10
a 9155 9156 7
a 9155 9170 5
a 9155 9180 59
a 9156 9155 7
a 9157 6440 2
a 9158 6433 6
a 9159 6582 9
a 9160 11505 15
a 9161 6417 41
a 9161 6603 22
a 9161 8426 20
a 9162 8488 9
a 9163 8904 9
a 9163 6649 19
a 9163 57 16
a 9164 9166 4
a 9164 11166 2
a 9165 9167 9
a 9166 9167 2
a 9166 9164 4
a 9167 9165 9
a 9167 9166 2
a 9167 9168 2
a 9168 9167 2
a 9169 6673 12
a 9169 6603 26
a 9169 6698 26
a 9170 9049 10
a 9170 9155 5
a 9170 10661 15
a 9170 9085 16
a 9171 8905 2
a 9171 9172 11
a 9171 12688 15
a 9172 9171 11
a 9173 9278 17
a 9173 8903 10
a 9173 6649 11
a 9173 11171 7
a 9174 6629 9
a 9174 9175 8
a 9174 6550 33
a 9175 10694 3
a 9175 9174 8
a 9175 9176 9
a 9176 9175 9
a 9176 9328 12
a 9176 10694 6
a 9177 9328 10
a 9178 9179 11
a 9178 9365 17
a 9178 9364 19
a 9179 9178 11
a 9179 9365 10
a 9179 9364 8
a 9180 9155 59
a 9181 6598 5
a 9181 10667 20
a 9181 6558 42
a 9182 13318 12
a 9182 8455 24
a 9183 9747 16
a 9184 9111 3
a 9184 7561 9
a 9184 9185 17
a 9185 9184 17
a 9186 3783 6
a 9186 3964 39
a 9186 9187 14
a 9187 3783 9
a 9187 3921 27
a 9187 9186 14
a 9188 10623 55
a 9188 9190 10
a 9188 9189 17
a 9189 9188 17
a 9190 9188 10
a 9190 6448 71
a 9190 6588 80
a 9191 10691 1
a 9191 10695 12
a 9191 9192 13
a 9192 9191 13
a 9193 6702 1
a 9194 6421 2
a 9195 6621 26
a 9195 6570 40
a 9195 6379 38
a 9196 7683 26
a 9196 12052 10
a 9196 9197 21
a 9197 10578 4
a 9197 9196 21
a 9197 10552 7
a 9198 739 2
a 9199 9198 3
a 9199 8175 1
a 9200 9953 10
a 9200 7232 45
a 9200 10294 64
a 9201 475 11
a 9201 471 12
a 9201 9202 81
a 9202 9201 81
a 9202 133 19
a 9202 476 38
a 9203 6552 2
a 9203 9146 15
a 9204 8393 21
a 9204 6571 16
a 9204 11243 46
a 9205 6486 2
a 9205 9206 8
a 9205 8397 20
a 9206 9205 8
a 9206 8397 22
a 9206 8390 5
a 9207 7966 16
a 9207 11911 4
a 9207 7681 18
a 9208 8427 4
a 9208 9209 12
a 9208 3174 41
a 9208 7683 44
a 9209 9208 12
a 9209 9224 9
a 9209 10559 15
a 9210 10591 4
a 9210 2977 10
a 9210 10576 4
a 9211 10572 5
a 9211 4966 13
a 9211 9214 12
a 9212 9223 7
a 9212 10573 2
a 9212 10572 11
a 9213 9214 13
a 9213 10576 8
a 9213 9215 5
a 9214 9213 13
a 9214 9211 12
a 9214 10580 13
a 9215 10593 4
a 9215 9213 5
a 9215 10581 8
a 9216 10595 5
a 9216 10593 4
a 9216 9217 9
a 9217 10596 4
a 9217 10577 16
a 9217 9216 9
a 9218 10581 2
a 9218 4967 5
a 9218 10594 4
a 9219 9220 6
a 9219 10594 4
a 9219 10595 5
a 9220 4963 4
a 9220 10596 4
a 9220 9219 6
a 9221 9222 12
a 9222 9221 12
a 9222 61 11
a 9223 9212 7
a 9223 8429 8
a 9223 10572 16
a 9224 9209 9
a 9225 10557 4
a 9225 8433 14
a 9225 10574 12
a 9226 2943 6
a 9226 8433 9
a 9227 9228 11
a 9227 6387 9
a 9227 6535 5
a 9228 9227 11
a 9228 9229 7
a 9228 6584 7
a 9229 6535 11
a 9229 9231 9
a 9229 9228 7
a 9230 6647 4
a 9230 9231 12
a 9230 6535 7
a 9231 9230 12
a 9231 6522 4
a 9231 9229 9
a 9232 4172 17
a 9233 8411 85
a 9233 11416 2
a 9234 9240 12
a 9234 9235 4
a 9234 9238 16
a 9235 9241 13
a 9235 9234 4
a 9235 9236 5
a 9236 9243 13
a 9236 9235 5
a 9236 9237 4
a 9237 10765 5
a 9237 9236 4
a 9237 11416 16
a 9238 9239 1
a 9238 6806 11
a 9238 9234 16
a 9239 9240 3
a 9239 9238 1
a 9239 9242 8
a 9240 9241 4
a 9240 9239 3
a 9240 9234 12
a 9240 13435 6
a 9241 9243 4
a 9241 9240 4
a 9241 9235 13
a 9241 9246 8
a 9242 9239 8
a 9242 9246 8
a 9242 6803 13
a 9243 6804 4
a 9243 9241 4
a 9243 9236 13
a 9244 6810 6
a 9244 9249 9
a 9244 11418 11
a 9245 9249 6
a 9245 6810 3
a 9246 6805 9
a 9246 9242 8
a 9246 9241 8
a 9247 9248 3
a 9247 9911 4
a 9247 6804 7
a 9247 11448 10
a 9248 9247 3
a 9249 9245 6
a 9249 9912 10
a 9249 9244 9
a 9249 9250 11
a 9250 6811 2
a 9250 9903 8
a 9250 9249 11
a 9251 9902 1
a 9251 9253 10
a 9251 6812 11
a 9252 6812 6
a 9252 9908 3
a 9252 6811 7
a 9252 9256 23
a 9253 9251 10
a 9253 9255 12
a 9253 9254 17
a 9254 9915 13
a 9254 9916 2
a 9254 9253 17
a 9255 9904 3
a 9255 9257 13
a 9255 9253 12
a 9256 8548 9
a 9256 9252 23
a 9256 6802 8
a 9257 9255 13
a 9258 9904 4
a 9259 10603 5
a 9259 7387 4
a 9259 12717 12
a 9260 11606 20
a 9261 10604 3
a 9261 7388 9
a 9261 10606 9
a 9262 9263 4
a 9262 9269 27
a 9262 10605 6
a 9263 6767 2
a 9263 9262 4
a 9263 12793 6
a 9264 6768 6
a 9265 9267 8
a 9265 8385 4
a 9265 8387 2
a 9266 11904 6
a 9266 11725 25
a 9266 9267 9
a 9267 9265 8
a 9267 9266 9
a 9267 6766 4
a 9268 9269 3
a 9268 6769 10
a 9268 9923 16
a 9269 9268 3
a 9269 12789 2
a 9269 9262 27
a 9270 10770 2
a 9270 9273 17
a 9270 12477 1
a 9271 9273 6
a 9271 10771 14
a 9272 9275 6
a 9272 9271 4
a 9273 9271 6
a 9273 9275 4
a 9274 7070 3
a 9274 9272 5
a 9274 7069 6
a 9275 9272 6
a 9275 9276 5
a 9276 9131 9
a 9276 7070 1
a 9277 9280 15
a 9277 11921 9
a 9277 9278 9
a 9278 9277 9
a 9278 9173 17
a 9278 9281 13
a 9279 9280 2
a 9279 6427 9
a 9279 11921 17
a 9280 9281 3
a 9280 9279 2
a 9280 9277 15
a 9281 9280 3
a 9281 59 11
a 9281 9278 13
a 9282 6573 7
a 9282 6704 46
a 9282 4168 8
a 9283 11111 2
a 9283 4156 5
a 9283 10543 14
a 9284 9288 13
a 9284 11111 8
a 9284 13005 11
a 9285 5113 14
a 9286 7590 2
a 9286 11110 4
a 9286 7592 15
a 9287 10543 3
a 9288 9284 13
a 9288 10542 11
a 9288 10543 10
a 9289 10544 6
a 9289 8902 14
a 9289 6496 15
a 9290 10743 3
a 9290 10742 4
a 9290 7373 15
a 9291 7086 8
a 9291 7321 11
a 9291 10659 29
a 9292 8623 9
a 9292 8119 12
a 9292 11230 11
a 9293 2631 13
a 9293 890 23
a 9293 9808 47
a 9294 10213 5
a 9294 9295 19
a 9294 9296 4
a 9294 9297 4
a 9295 9294 19
a 9295 9296 23
a 9295 9297 23
a 9296 9294 4
a 9296 10215 26
a 9296 9295 23
a 9297 10214 5
a 9297 9294 4
a 9297 9295 23
a 9297 8807 29
a 9298 39 6
a 9298 2440 18
a 9299 11428 1
a 9299 9300 11
a 9299 7267 15
a 9300 13130 3
a 9300 9299 11
a 9300 9310 5
a 9301 9310 8
a 9301 9304 5
a 9301 9302 15
a 9301 9308 4
a 9302 9305 5
a 9302 9301 15
a 9302 9309 5
a 9303 7267 6
a 9303 9310 5
a 9303 12097 3
a 9304 7267 2
a 9304 9301 5
a 9304 9305 18
a 9305 9302 5
a 9305 12244 4
a 9305 9304 18
a 9306 9309 5
a 9306 9307 11
a 9306 12244 22
a 9307 9309 11
a 9307 9308 2
a 9307 9306 11
a 9308 13125 3
a 9308 9307 2
a 9308 9301 4
a 9309 9306 5
a 9309 9302 5
a 9309 9307 11
a 9310 9301 8
a 9310 9300 5
a 9310 9303 5
a 9311 8406 49
a 9312 9313 9
a 9312 11216 5
a 9312 6727 19
a 9313 6439 9
a 9313 9312 9
a 9313 6727 7
a 9313 11782 14
a 9314 8489 12
a 9315 9339 15
a 9316 6754 16
a 9317 10071 11
a 9317 9318 11
a 9317 3041 30
a 9318 2485 30
a 9318 9317 11
a 9318 9319 13
a 9319 2827 19
a 9319 157 20
a 9319 9318 13
a 9320 6938 5
a 9320 11837 11
a 9320 12797 19
a 9321 6623 1
a 9321 9152 11
a 9321 12698 22
a 9322 6874 15
a 9322 6875 20
a 9322 6873 6
a 9323 6564 7
a 9323 6628 38
a 9323 6637 5
a 9323 6443 6
a 9324 4161 1
a 9324 4162 5
a 9325 9132 15
a 9326 13297 2
a 9326 6864 26
a 9326 4459 9
a 9327 10807 6
a 9327 6865 7
a 9328 10937 21
a 9328 9176 12
a 9328 9177 10
a 9329 4697 4
a 9330 10612 5
a 9330 10614 6
a 9330 10613 4
a 9331 6779 6
a 9331 6781 19
a 9332 9896 12
a 9332 5308 3
a 9332 5327 20
a 9333 6883 4
a 9333 9942 3
a 9333 4538 9
a 9334 9335 6
a 9334 11852 12
a 9334 11744 21
a 9335 9334 6
a 9335 9336 10
a 9335 11743 9
a 9336 9335 10
a 9336 10208 5
a 9336 11852 6
a 9337 8265 8
a 9337 10208 4
a 9337 13595 4
a 9338 7848 7
a 9338 13072 2
a 9339 6711 10
a 9339 9315 15
a 9339 6760 18
a 9340 8393 5
a 9340 6742 21
a 9340 6758 35
a 9341 11720 17
a 9342 12351 2
a 9342 12179 15
a 9342 4234 9
a 9343 205 21
a 9344 6710 19
a 9345 3873 3
a 9346 9347 10
a 9346 30 19
a 9346 70 27
a 9347 9346 10
a 9347 9347 16
a 9348 753 2
a 9348 6985 25
a 9349 6881 2
a 9349 13090 2
a 9350 4410 1
a 9351 6890 3
a 9351 169 30
a 9352 1824 7
a 9353 1474 15
a 9353 9354 34
a 9353 1383 14
a 9353 1466 35
a 9354 1119 9
a 9354 9353 34
a 9354 1462 36
a 9354 1475 8
a 9355 1636 14
a 9355 1462 22
a 9355 10004 21
a 9355 1476 28
a 9356 8154 1
a 9356 7345 3
a 9357 7357 4
a 9357 9356 1
a 9358 4818 94
a 9358 11103 24
a 9358 784 7
a 9359 9360 2
a 9359 2167 3
a 9359 1545 7
a 9360 2163 5
a 9360 9359 2
a 9360 2168 30
a 9361 6472 48
a 9362 7968 13
a 9362 4836 75
a 9362 11197 13
a 9362 12609 21
a 9363 6468 11
a 9363 8902 26
a 9363 11922 14
a 9364 8426 8
a 9364 9179 8
a 9364 9178 19
a 9365 9179 10
a 9365 12692 13
a 9365 9178 17
a 9366 4264 2
a 9367 6967 5
a 9368 468 11
a 9369 4362 44
a 9370 4403 40
a 9370 13313 10
a 9370 4553 16
a 9370 9445 13
a 9371 228 51
a 9371 226 4
a 9371 7285 3
a 9372 9373 1
a 9372 7754 4
a 9373 1226 3
a 9374 3295 7
a 9375 3253 15
a 9375 3253 10
a 9375 9376 6
a 9376 9375 6
a 9377 7722 1
a 9377 479 25
a 9378 6944 10
a 9379 4202 8
a 9379 4226 29
a 9379 4203 6
a 9380 4229 17
a 9380 4215 5
a 9380 7903 20
a 9381 4225 6
a 9381 7903 8
a 9381 13117 28
a 9382 3735 14
a 9382 399 27
a 9382 10383 27
a 9383 2754 11
a 9384 3768 24
a 9385 4037 20
a 9386 12321 3
a 9386 8409 26
a 9387 9834 14
a 9387 9389 40
a 9387 4353 13
a 9388 4530 16
a 9388 9834 36
a 9388 11441 7
a 9388 9390 18
a 9389 9390 19
a 9389 4444 23
a 9389 9387 40
a 9390 4530 16
a 9390 9389 19
a 9390 12423 18
a 9390 9388 18
a 9391 7575 1
a 9391 260 11
a 9391 7574 54
a 9392 3096 1
a 9392 12878 11
a 9393 4518 8
a 9393 9394 6
a 9393 8152 30
a 9394 4441 9
a 9394 4420 55
a 9394 9393 6
a 9394 8129 16
a 9395 11435 58
a 9396 7971 10
a 9396 9835 4
a 9396 9397 7
a 9397 4346 6
a 9397 9396 7
a 9397 4441 22
a 9398 4353 13
a 9398 4346 5
a 9398 9834 11
a 9399 7794 10
a 9399 9410 7
a 9399 9835 43
a 9400 9841 8
a 9400 9409 14
a 9401 9458 13
a 9401 4360 7
a 9401 2375 11
a 9401 4339 29
a 9402 4437 11
a 9402 4444 2
a 9402 11076 13
a 9403 9457 2
a 9404 9458 24
a 9404 9458 47
a 9404 4440 22
a 9405 2371 64
a 9405 9456 10
a 9405 12423 11
a 9406 2381 34
a 9406 4454 12
a 9406 6927 37
a 9407 6926 5
a 9407 6910 7
a 9407 2372 14
a 9407 6905 54
a 9408 11285 6
a 9408 13137 1
a 9408 13138 6
a 9409 4346 27
a 9409 7793 29
a 9409 9410 26
a 9409 9400 14
a 9410 9399 7
a 9410 8111 3
a 9410 9409 26
a 9411 4595 9
a 9411 4647 8
a 9411 4710 43
a 9412 13011 42
a 9413 9961 3
a 9413 8227 7
a 9414 435 11
a 9414 9961 31
a 9414 426 8
a 9415 9416 7
a 9415 9417 12
a 9415 7756 10
a 9416 9415 7
a 9417 8837 2
a 9417 9415 12
a 9417 10049 17
a 9418 9418 47
a 9418 9418 47
a 9418 8181 21
a 9419 15 25
a 9419 1083 31
a 9419 1082 5
a 9420 7981 16
a 9421 10501 6
a 9422 9423 4
a 9422 6604 45
a 9423 7965 2
a 9423 11612 7
a 9423 9425 8
a 9424 9425 5
a 9425 9423 8
a 9425 9426 8
a 9425 9424 5
a 9426 6648 4
a 9426 7965 4
a 9426 9425 8
a 9427 11930 4
a 9427 6438 8
a 9427 6730 25
a 9428 4437 18
a 9429 2562 10
a 9429 706 22
a 9430 7931 17
a 9430 11077 6
a 9430 8797 43
a 9431 10124 3
a 9432 10017 1
a 9432 9878 4
a 9433 9434 1
a 9433 6956 2
a 9434 2573 27
a 9435 8097 3
a 9436 13016 35
a 9437 6024 4
a 9438 6026 2
a 9439 8340 1
a 9439 7220 2
a 9440 2447 14
a 9440 7279 9
a 9440 2448 21
a 9441 2078 3
a 9442 11123 4
a 9442 9672 2
a 9443 140 5
a 9443 13092 4
a 9444 4395 6
a 9445 4362 6
a 9445 9370 13
a 9445 9446 16
a 9446 4472 6
a 9446 4421 21
a 9447 1869 9
a 9448 484 1
a 9448 7524 12
a 9449 11030 8
a 9450 11029 19
a 9450 13088 20
a 9451 10269 3
a 9451 10268 3
a 9452 9453 4
a 9452 268 5
a 9453 4598 3
a 9454 12512 1
a 9454 95 6
a 9454 12569 7
a 9455 2283 37
a 9455 10920 14
a 9456 4440 7
a 9456 9405 10
a 9456 9457 7
a 9457 9403 2
a 9457 9456 7
a 9457 12665 47
a 9457 12423 20
a 9458 9401 13
a 9458 9404 24
a 9458 9404 47
a 9458 4456 12
a 9459 7110 81
a 9460 10546 14
a 9460 6615 6
a 9460 6463 9
a 9461 5559 4
a 9461 5596 8
a 9461 9462 17
a 9462 9461 17
a 9463 10841 1
a 9463 10845 4
a 9463 5878 9
a 9464 7180 24
a 9465 103 18
a 9465 12813 21
a 9465 114 30
a 9466 7327 11
a 9466 3203 15
a 9466 3202 28
a 9467 11672 1
a 9467 7875 14
a 9468 3563 2
a 9469 7827 23
a 9470 8105 9
a 9470 9636 11
a 9470 9635 23
a 9471 7844 1
a 9472 10927 25
a 9472 12650 21
a 9473 3620 19
a 9473 142 8
a 9473 3769 14
a 9474 9942 9
a 9474 12661 3
a 9474 4412 6
a 9475 4434 3
a 9476 7648 11
a 9476 7648 48
a 9476 8050 31
a 9477 166 2
a 9477 7830 2
a 9478 5616 18
a 9478 5731 9
a 9478 5635 30
a 9479 545 1
a 9479 544 7
a 9479 7254 17
a 9480 2531 2
a 9480 465 4
a 9481 2741 11
a 9481 3809 10
a 9481 2739 27
a 9481 2740 34
a 9482 12267 44
a 9482 11282 13
a 9483 5387 8
a 9483 1660 6
a 9483 5386 20
a 9484 2941 37
a 9484 2868 36
a 9484 9485 9
a 9485 9484 9
a 9485 2494 18
a 9486 9487 8
a 9487 7242 17
a 9487 7240 8
a 9487 1228 11
a 9487 9486 8
a 9488 1229 8
a 9489 1278 6
a 9489 531 14
a 9489 530 34
a 9490 7551 11
a 9491 9607 22
a 9491 183 47
a 9491 7396 18
a 9492 13279 2
a 9493 3636 4
a 9493 9494 21
a 9493 4024 15
a 9494 9493 21
a 9495 10309 20
a 9496 10309 18
a 9497 238 15
a 9497 10109 3
a 9498 11985 11
a 9498 3180 22
a 9498 9499 22
a 9499 9498 22
a 9499 6924 6
a 9500 8914 14
a 9500 6920 12
a 9501 2231 7
a 9501 2229 32
a 9501 2228 7
a 9502 2222 12
a 9503 2228 9
a 9503 2226 25
a 9503 2226 25
a 9504 53 41
a 9504 10934 2
a 9505 6947 13
a 9505 9515 12
a 9505 9514 26
a 9506 9512 13
a 9506 9520 19
a 9506 9509 9
a 9507 9510 9
a 9507 10487 11
a 9507 9512 14
a 9508 9510 2
a 9508 9519 12
a 9508 10505 33
a 9509 8941 6
a 9509 9511 13
a 9509 9506 9
a 9510 9511 14
a 9510 9508 2
a 9510 9507 9
a 9511 9510 14
a 9511 9509 13
a 9511 9512 9
a 9512 9511 9
a 9512 9506 13
a 9512 9507 14
a 9513 9517 17
a 9513 9514 13
a 9513 6948 4
a 9513 8939 6
a 9514 8941 7
a 9514 9505 26
a 9514 9513 13
a 9514 9516 8
a 9515 9505 12
a 9515 9519 23
a 9515 9516 21
a 9516 9515 21
a 9516 9514 8
a 9516 9519 16
a 9517 9513 17
a 9518 4494 6
a 9519 12582 5
a 9519 9508 12
a 9519 9515 23
a 9519 9516 16
a 9520 9506 19
a 9520 13252 2
a 9520 9521 14
a 9521 9520 14
a 9521 4449 15
a 9521 6948 17
a 9522 7995 4
a 9522 11529 8
a 9522 9523 9
a 9523 11524 4
a 9523 7996 5
a 9523 9524 8
a 9523 9522 9
a 9524 9525 3
a 9524 9523 8
a 9524 11524 9
a 9525 9524 3
a 9526 7996 10
a 9526 12545 7
a 9526 7979 21
a 9527 4915 5
a 9528 9529 7
a 9528 4638 16
a 9528 4662 25
a 9528 4667 10
a 9529 4711 8
a 9529 4648 24
a 9529 4586 6
a 9529 9528 7
a 9530 4721 7
a 9530 4735 12
a 9530 4769 31
a 9530 4731 26
a 9531 7971 5
a 9532 9533 13
a 9532 7795 11
a 9532 8128 19
a 9533 7971 4
a 9533 9835 10
a 9533 9532 13
a 9533 7973 11
a 9534 7784 5
a 9534 7793 8
a 9534 8113 21
a 9535 7782 4
a 9535 7780 20
a 9535 9536 4
a 9536 9537 11
a 9536 9535 4
a 9536 9538 9
a 9537 9536 11
a 9538 9536 9
a 9539 9540 17
a 9539 10947 14
a 9539 12313 12
a 9540 9539 17
a 9541 7229 7
a 9541 7226 6
a 9541 7228 18
a 9542 7229 3
a 9543 13244 1
a 9543 7228 8
a 9543 7229 15
a 9544 6095 29
a 9544 6121 6
a 9544 6125 6
a 9545 9551 11
a 9546 10364 2
a 9546 8991 8
a 9546 9556 4
a 9547 9558 2
a 9547 9555 3
a 9547 11292 22
a 9548 9558 4
a 9548 9572 2
a 9548 11292 10
a 9549 10366 5
a 9549 9572 8
a 9549 9559 4
a 9549 9550 17
a 9550 9569 3
a 9550 9549 17
a 9550 9557 8
a 9550 8990 13
a 9551 9566 4
a 9551 9570 9
a 9551 9573 8
a 9551 9545 11
a 9552 9568 3
a 9552 9553 6
a 9552 9570 19
a 9553 9570 9
a 9553 9567 4
a 9553 9552 6
a 9554 9557 3
a 9554 8991 9
a 9554 8990 10
a 9555 9556 9
a 9555 9547 3
a 9555 10364 8
a 9556 9555 9
a 9556 9546 4
a 9556 9559 4
a 9556 9557 17
a 9557 9554 3
a 9557 9556 17
a 9557 9550 8
a 9558 9547 2
a 9558 9548 4
a 9558 9559 10
a 9559 9556 4
a 9559 9549 4
a 9559 9558 10
a 9560 10366 4
a 9560 9563 4
a 9560 9561 17
a 9561 10365 4
a 9561 9564 4
a 9561 9560 17
a 9562 9572 12
a 9563 9560 4
a 9563 9566 3
a 9563 9564 17
a 9564 9567 3
a 9564 9561 4
a 9564 9563 17
a 9565 9566 7
a 9566 9563 3
a 9566 9551 4
a 9566 9565 7
a 9566 9567 17
a 9567 9564 3
a 9567 9553 4
a 9567 9566 17
a 9568 9552 3
a 9568 9569 22
a 9568 9571 5
a 9569 10365 2
a 9569 9550 3
a 9569 9568 22
a 9570 9553 9
a 9570 9551 9
a 9570 9552 19
a 9571 9568 5
a 9572 9548 2
a 9572 9549 8
a 9572 9562 12
a 9573 9551 8
a 9574 6201 16
a 9575 10086 63
a 9575 11335 3
a 9576 11156 13
a 9577 13587 11
a 9577 10058 11
a 9577 13605 25
a 9577 9351 25
a 9578 13246 1
a 9578 3864 15
a 9579 822 4
a 9579 119 28
a 9579 117 8
a 9580 9137 31
a 9581 6413 18
a 9582 9439 1
a 9582 13166 1
a 9583 1224 4
a 9584 12380 1
a 9584 8573 2
a 9584 7760 5
a 9585 9590 13
a 9585 9589 12
a 9585 11844 8
a 9586 9587 5
a 9587 9588 24
a 9587 9586 5
a 9587 9589 9
a 9588 9587 24
a 9588 9590 8
a 9588 9591 33
a 9589 9585 12
a 9589 9587 9
a 9589 12027 16
a 9590 9585 13
a 9590 9591 26
a 9590 9588 8
a 9590 11844 21
a 9591 9590 26
a 9591 9588 33
a 9591 9592 4
a 9592 11834 17
a 9592 11590 6
a 9592 9591 4
a 9593 7373 19
a 9593 11834 8
a 9593 11846 76
a 9594 9141 8
a 9595 9141 73
a 9597 2307 28
a 9597 2769 20
a 9597 7048 76
a 9598 2253 69
a 9598 2313 38
a 9598 2769 19
a 9599 4868 4
a 9599 4841 8
a 9599 10501 42
a 9600 129 13
a 9600 12233 48
a 9600 9601 5
a 9601 9602 24
a 9601 129 13
a 9601 9600 5
a 9602 9601 24
a 9603 467 20
a 9603 122 29
a 9603 12232 29
a 9604 9675 15
a 9604 2972 17
a 9605 7696 35
a 9605 11297 19
a 9606 222 44
a 9606 42 20
a 9606 11021 2
a 9607 7288 13
a 9608 4106 5
a 9608 9610 2
a 9608 12994 9
a 9609 13211 1
a 9609 12994 3
a 9609 4124 28
a 9610 4101 17
a 9610 4100 11
a 9610 9608 2
a 9611 7054 4
a 9611 9611 8
a 9612 3962 16
a 9612 3639 26
a 9612 3814 11
a 9613 9614 5
a 9613 4124 17
a 9613 4123 11
a 9614 9613 5
a 9615 9616 5
a 9615 4104 20
a 9615 4105 14
a 9616 9615 5
a 9617 12995 20
a 9618 12271 1
a 9619 959 23
a 9619 11889 13
a 9619 895 12
a 9619 2072 17
a 9620 9621 11
a 9620 6006 15
a 9620 4257 7
a 9621 9620 11
a 9622 11164 34
a 9623 6235 20
a 9623 6238 6
a 9623 6240 14
a 9624 6212 6
a 9625 6218 3
a 9626 9628 6
a 9626 9627 15
a 9626 12140 27
a 9627 9626 15
a 9628 9626 6
a 9628 12681 4
a 9628 10488 4
a 9629 12140 6
a 9629 6235 15
a 9629 10483 15
a 9630 6228 5
a 9631 6221 5
a 9631 5158 5
a 9631 12678 10
a 9632 5157 8
a 9633 6367 11
a 9634 12573 2
a 9634 6061 2
a 9634 5153 11
a 9635 9470 23
a 9636 9470 11
a 9637 267 12
a 9638 4709 2
a 9638 4622 8
a 9638 9637 23
a 9639 4699 3
a 9639 9638 12
a 9639 4629 18
a 9641 4570 6
a 9642 8734 1
a 9642 12870 3
a 9643 12870 2
a 9644 4039 13
a 9645 9125 19
a 9646 13455 13
a 9646 907 33
a 9646 906 19
a 9647 9648 22
a 9647 13455 10
a 9647 13456 9
a 9648 900 21
a 9648 907 42
a 9648 9647 22
a 9649 3364 1
a 9649 3365 4
a 9649 2359 32
a 9650 10330 9
a 9650 10318 10
a 9650 2359 16
a 9650 9651 19
a 9651 9650 19
a 9652 879 11
a 9652 878 9
a 9653 7435 11
a 9653 7434 22
a 9653 11350 9
a 9654 883 9
a 9654 9652 52
a 9655 6922 1
a 9656 12239 6
a 9657 12767 2
a 9657 3946 23
a 9658 873 10
a 9658 7022 10
a 9658 876 64
a 9658 2630 25
a 9659 7024 13
a 9659 7036 33
a 9659 7022 20
a 9660 12493 47
a 9660 9725 8
a 9660 13518 5
a 9661 12405 7
a 9661 2108 11
a 9661 2097 13
a 9662 2631 47
a 9662 2639 22
a 9662 873 21
a 9663 2533 3
a 9663 11354 3
a 9664 11980 2
a 9665 8148 2
a 9666 2109 17
a 9666 7027 34
a 9666 9667 34
a 9667 12061 1
a 9667 9666 34
a 9668 2085 14
a 9668 9072 23
a 9669 3089 4
a 9669 11715 27
a 9669 4059 5
a 9670 12066 2
a 9670 7419 2
a 9671 10945 6
a 9672 9442 2
a 9672 10053 14
a 9673 1863 1
a 9673 862 22
a 9674 10054 1
a 9674 12167 1
a 9675 3058 47
a 9675 13439 26
a 9675 450 14
a 9675 9604 15
a 9676 11311 2
a 9676 9677 6
a 9677 6958 1
a 9678 9853 2
a 9678 3817 4
a 9678 859 14
a 9679 12076 10
a 9679 12603 6
a 9679 8069 36
a 9680 2729 5
a 9681 9683 2
a 9681 2720 14
a 9681 4065 21
a 9682 3699 10
a 9683 9681 2
a 9684 13293 2
a 9684 9431 8
a 9685 11192 26
a 9685 13015 8
a 9685 1261 12
a 9686 3110 29
a 9686 13074 9
a 9687 11003 5
a 9687 1095 33
a 9688 3019 2
a 9688 2924 10
a 9688 3119 8
a 9689 9692 4
a 9690 9576 64
a 9690 9689 13
a 9690 9691 12
a 9691 9689 1
a 9691 10055 11
a 9692 7739 1
a 9692 10055 4
a 9693 9703 2
a 9693 13406 3
a 9694 6921 13
a 9694 6923 34
a 9695 12532 14
a 9696 12262 3
a 9698 43 13
a 9698 9477 1
a 9699 9700 3
a 9699 11098 14
a 9700 7486 5
a 9701 12415 3
a 9701 7486 4
a 9702 7262 1
a 9702 13436 16
a 9703 13436 2
a 9703 12390 2
a 9704 8108 4
a 9704 10163 9
a 9705 12725 1
a 9705 10133 8
a 9706 47 20
a 9707 6953 32
a 9707 11989 5
a 9708 10125 7
a 9709 10096 1
a 9709 908 30
a 9710 7326 1
a 9710 8150 1
a 9710 9665 3
a 9711 7327 2
a 9711 3554 3
a 9712 9695 4
a 9712 10149 7
a 9713 13008 5
a 9714 9702 1
a 9714 12390 21
a 9715 2750 3
a 9715 12111 20
a 9716 2732 7
a 9717 5396 46
a 9718 10140 4
a 9718 3297 13
a 9718 12188 1
a 9719 2734 1
a 9719 400 5
a 9719 3618 30
a 9720 8323 34
a 9721 5921 6
a 9722 4185 5
a 9723 5925 6
a 9723 9724 12
a 9723 5926 4
a 9724 9723 12
a 9725 857 38
a 9725 9660 8
a 9726 2744 34
a 9727 5499 5
a 9727 11315 1
a 9727 5457 27
a 9728 5442 9
a 9728 9846 3
a 9728 5463 20
a 9728 5657 6
a 9729 955 8
a 9729 9733 15
a 9729 896 21
a 9730 9731 8
a 9731 325 5
a 9731 9732 49
a 9731 9730 8
a 9732 1138 25
a 9732 324 6
a 9732 115 15
a 9733 9729 15
a 9734 11381 3
a 9735 13085 1
a 9735 9031 66
a 9736 9030 87
a 9736 9735 5
a 9737 9740 2
a 9737 11203 19
a 9738 9741 1
a 9739 9742 5
a 9739 9738 1
a 9740 9739 1
a 9741 9860 46
a 9741 9737 1
a 9742 12438 11
a 9742 11204 1
a 9743 8056 11
a 9743 1035 22
a 9743 1037 40
a 9744 7694 28
a 9744 1024 10
a 9745 2779 7
a 9745 1857 1
a 9746 7637 37
a 9746 7637 14
a 9746 4765 9
a 9747 4030 72
a 9747 9183 16
a 9747 7094 21
a 9748 6788 3
a 9748 6782 20
a 9748 6816 17
a 9749 8973 18
a 9750 9751 7
a 9751 6373 1
a 9751 9750 7
a 9752 8285 1
a 9752 8297 1
a 9752 9753 4
a 9753 9754 12
a 9753 9755 31
a 9753 9752 4
a 9754 8380 5
a 9754 9753 12
a 9754 8298 28
a 9755 9753 31
a 9756 7819 15
a 9757 8298 51
a 9757 4129 42
a 9757 10933 14
a 9758 7821 1
a 9758 8326 12
a 9758 8298 8
a 9759 12179 1
a 9759 12253 3
a 9759 5813 11
a 9760 5911 9
a 9761 12637 2
a 9761 5893 25
a 9761 11444 6
a 9762 7456 7
a 9763 5945 4
a 9764 5958 2
a 9765 5943 2
a 9766 5967 2
a 9767 11431 6
a 9767 5889 35
a 9767 7171 48
a 9768 4182 2
a 9768 12634 17
a 9768 9769 8
a 9769 9768 8
a 9770 5977 2
a 9771 5917 18
a 9771 5916 13
a 9771 11445 19
a 9772 9777 2
a 9773 13119 4
a 9773 9774 18
a 9773 9778 20
a 9774 13119 14
a 9774 7174 3
a 9774 9773 18
a 9775 5918 6
a 9775 8324 5
a 9775 12636 18
a 9776 5872 10
a 9777 9772 2
a 9777 8328 16
a 9777 8328 34
a 9777 9779 41
a 9778 7175 16
a 9778 13119 15
a 9778 9773 20
a 9779 8328 3
a 9779 9777 41
a 9779 4195 6
a 9780 13117 2
a 9781 4212 10
a 9782 9783 25
a 9783 7211 2
a 9783 869 42
a 9783 9782 25
a 9784 11856 4
a 9785 5419 20
a 9785 5412 15
a 9785 9786 8
a 9786 9785 8
a 9786 9790 21
a 9786 9791 9
a 9787 6298 4
a 9787 9811 11
a 9787 9788 22
a 9788 9787 22
a 9788 9790 17
a 9788 9791 12
a 9789 9791 21
a 9790 9792 4
a 9790 9786 21
a 9790 9788 17
a 9791 9788 12
a 9791 9786 9
a 9791 9789 21
a 9792 9790 4
a 9793 1049 17
a 9793 5241 9
a 9793 3001 3
a 9794 10992 1
a 9794 11254 3
a 9794 12892 2
a 9794 11619 4
a 9794 11618 6
a 9795 12374 4
a 9795 12373 2
a 9795 682 21
a 9795 9796 11
a 9796 9868 2
a 9796 9795 11
a 9797 7953 23
a 9797 8568 8
a 9797 7956 5
a 9798 634 5
a 9798 261 7
a 9798 632 42
a 9799 9879 5
a 9799 7835 3
a 9800 629 11
a 9800 10 26
a 9800 10069 13
a 9801 1048 11
a 9801 5241 15
a 9801 2435 2
a 9802 260 8
a 9802 2435 15
a 9802 11870 15
a 9803 596 40
a 9803 1098 10
a 9803 260 4
a 9804 595 22
a 9804 1079 33
a 9804 260 21
a 9805 7577 24
a 9805 12479 10
a 9805 1082 9
a 9806 4194 5
a 9807 11975 6
a 9808 7017 18
a 9808 890 26
a 9808 9293 47
a 9809 12029 8
a 9810 6316 2
a 9810 7870 19
a 9810 11479 10
a 9810 12029 13
a 9811 9787 11
a 9811 10354 12
a 9811 12677 29
a 9812 5414 5
a 9813 5419 5
a 9814 11645 2
a 9814 784 10
a 9814 11640 10
a 9815 11645 10
a 9816 1667 2
a 9816 4659 12
a 9817 1667 12
a 9817 4659 2
a 9818 5649 21
a 9819 9433 15
a 9819 9671 8
a 9820 2577 11
a 9821 9822 4
a 9822 9823 6
a 9822 9821 4
a 9822 10338 3
a 9823 3815 17
a 9823 9822 6
a 9823 3925 11
a 9824 1809 31
a 9824 3851 11
a 9824 3940 18
a 9824 3684 10
a 9825 12165 2
a 9825 7947 58
a 9825 7932 19
a 9826 8115 4
a 9827 7797 6
a 9828 8115 13
a 9828 8129 16
a 9828 8130 21
a 9829 7794 12
a 9829 7795 12
a 9829 7973 24
a 9830 7993 3
a 9830 7777 15
a 9830 9832 13
a 9831 7786 6
a 9831 7783 13
a 9831 9832 9
a 9832 7792 14
a 9832 7780 10
a 9832 9831 9
a 9832 9830 13
a 9833 4507 4
a 9833 12665 9
a 9833 4353 33
a 9834 4441 10
a 9834 9387 14
a 9834 9398 11
a 9834 9388 36
a 9835 9533 10
a 9835 9396 4
a 9835 9399 43
a 9836 9837 10
a 9836 11434 11
a 9836 6799 4
a 9837 6798 11
a 9837 9836 10
a 9837 10701 5
a 9838 9840 11
a 9839 9840 4
a 9840 9841 11
a 9840 9838 11
a 9840 9839 4
a 9841 9840 11
a 9841 9398 42
a 9842 7798 7
a 9842 7831 20
a 9842 8264 10
a 9843 7831 11
a 9843 8110 25
a 9843 8112 5
a 9844 4466 13
a 9844 4504 15
a 9844 9845 6
a 9845 9844 6
a 9846 9728 3
a 9847 9848 4
a 9848 9847 4
a 9848 5667 8
a 9848 11135 32
a 9849 9851 4
a 9849 9850 15
a 9849 11677 25
a 9850 9849 15
a 9851 9849 4
a 9851 2558 25
a 9851 8117 11
a 9852 13500 7
a 9852 2806 20
a 9853 9678 2
a 9853 7514 23
a 9854 8338 54
a 9855 4083 2
a 9855 8663 18
a 9855 8126 3
a 9856 3629 44
a 9857 760 16
a 9858 782 22
a 9858 7503 42
a 9858 9861 8
a 9859 12440 2
a 9859 780 17
a 9859 11206 11
a 9860 783 44
a 9860 9741 46
a 9860 8507 13
a 9861 9858 8
a 9861 12439 15
a 9861 11205 2
a 9862 10077 3
a 9862 9709 2
a 9863 7944 8
a 9863 8753 6
a 9864 7436 21
a 9864 9664 6
a 9865 380 8
a 9865 7771 9
a 9866 8669 4
a 9866 9867 2
a 9867 9869 1
a 9868 9870 1
a 9869 9796 2
a 9869 9868 2
a 9870 9872 5
a 9870 10014 2
a 9871 10012 3
a 9871 393 11
a 9872 456 7
a 9872 10014 5
a 9873 1535 27
a 9873 3058 14
a 9873 1534 14
a 9873 451 21
a 9873 12425 15
a 9874 675 42
a 9874 674 6
a 9874 676 5
a 9875 9876 5
a 9875 8059 4
a 9875 8053 13
a 9876 9875 5
a 9877 644 11
a 9877 649 27
a 9877 1140 38
a 9878 7577 6
a 9879 9957 6
a 9880 9021 13
a 9881 7659 11
a 9881 12535 8
a 9882 10019 2
a 9883 12009 7
a 9883 7679 21
a 9884 7676 17
a 9885 12198 1
a 9885 3080 13
a 9885 7660 8
a 9886 1031 42
a 9886 1032 20
a 9886 1033 7
a 9887 1083 2
a 9888 9022 6
a 9889 3167 3
a 9890 2949 3
a 9891 1221 3
a 9891 8788 7
a 9891 11438 22
a 9892 12322 3
a 9893 10779 2
a 9893 6849 2
a 9893 6850 8
a 9894 6846 2
a 9894 11839 9
a 9894 6845 13
a 9895 11841 4
a 9895 6846 5
a 9895 11840 11
a 9896 5348 13
a 9896 9332 12
a 9896 5331 12
a 9897 10774 12
a 9897 6838 7
a 9898 6830 10
a 9898 7759 11
a 9898 10697 21
a 9899 6844 19
a 9899 6843 9
a 9899 11841 21
a 9900 1223 9
a 9900 8401 3
a 9901 8572 2
a 9901 12381 5
a 9902 9251 1
a 9902 6814 7
a 9902 6809 5
a 9903 9250 8
a 9903 11418 3
a 9903 6809 9
a 9904 9255 3
a 9904 6812 13
a 9904 9258 4
a 9905 9906 12
a 9906 9905 12
a 9906 10606 6
a 9906 10604 10
a 9906 6767 22
a 9907 7388 19
a 9908 9252 3
a 9909 9911 3
a 9910 6805 3
a 9910 6804 5
a 9910 9911 9
a 9911 9909 3
a 9911 9910 9
a 9911 9247 4
a 9912 9249 10
a 9913 11447 6
a 9913 11446 12
a 9913 9917 14
a 9913 11614 4
a 9914 11447 3
a 9914 9921 6
a 9914 9919 18
a 9915 6807 6
a 9915 9254 13
a 9915 6814 27
a 9916 9254 2
a 9916 6813 13
a 9916 11702 3
a 9917 9918 5
a 9917 9919 2
a 9917 9913 14
a 9918 10699 4
a 9918 9917 5
a 9918 11614 12
a 9919 9917 2
a 9919 10700 6
a 9919 9914 18
a 9920 11703 10
a 9920 6800 8
a 9920 10700 6
a 9921 6796 8
a 9921 11446 3
a 9921 9914 6
a 9922 9924 5
a 9923 12793 2
a 9923 12790 5
a 9923 9268 16
a 9924 9922 5
a 9924 8386 5
a 9924 8388 13
a 9925 8443 3
a 9925 8439 9
a 9925 6801 25
a 9926 11597 4
a 9926 11606 8
a 9926 11131 4
a 9927 11597 14
a 9928 1560 1
a 9928 3133 8
a 9928 1559 6
a 9929 9068 2
a 9929 65 1
a 9930 6917 1
a 9930 10940 2
a 9931 6952 2
a 9931 12460 2
a 9932 4289 4
a 9934 12961 2
a 9935 3442 1
a 9935 8595 20
a 9936 13281 12
a 9936 4149 2
a 9936 4427 2
a 9936 13295 16
a 9937 3446 15
a 9938 4509 10
a 9938 3446 56
a 9938 4409 17
a 9939 7395 10
a 9940 1874 20
a 9941 4531 3
a 9942 9474 9
a 9942 4990 9
a 9942 9333 3
a 9943 4446 8
a 9944 6994 7
a 9944 2355 40
a 9944 4295 12
a 9945 627 27
a 9945 8925 8
a 9945 8926 12
a 9946 1438 3
a 9946 3177 29
a 9946 1208 22
a 9947 9031 1
a 9947 1142 3
a 9948 50 1
a 9948 672 16
a 9948 665 6
a 9949 50 9
a 9949 662 1
a 9950 12446 1
a 9950 12933 25
a 9951 2984 1
a 9951 13376 50
a 9952 11001 3
a 9953 9200 10
a 9953 904 37
a 9953 903 29
a 9954 11121 1
a 9954 11118 3
a 9954 11117 3
a 9955 1023 3
a 9956 11868 1
a 9956 11867 1
a 9957 1023 2
a 9957 9956 5
a 9958 518 22
a 9959 355 40
a 9959 113 10
a 9959 346 1
a 9960 172 2
a 9960 435 18
a 9961 9413 3
a 9961 9960 12
a 9962 5308 6
a 9962 8445 17
a 9962 5348 17
a 9963 10644 4
a 9964 12812 4
a 9965 9966 9
a 9966 9968 4
a 9966 3611 4
a 9966 9965 9
a 9967 3610 6
a 9968 9966 4
a 9969 10610 20
a 9970 9971 6
a 9970 9972 9
a 9970 12712 3
a 9971 12714 3
a 9971 9972 3
a 9971 9970 6
a 9972 9971 3
a 9972 9973 3
a 9972 9970 9
a 9973 9972 3
a 9973 9974 2
a 9973 9975 1
a 9974 9977 12
a 9974 9973 2
a 9974 11632 44
a 9975 9973 1
a 9975 12715 8
a 9975 9976 5
a 9976 9975 5
a 9977 9974 12
a 9978 3563 7
a 9978 7656 7
a 9978 10824 47
a 9979 12077 6
a 9980 9981 16
a 9981 4853 27
a 9981 4852 12
a 9981 9980 16
a 9982 1580 5
a 9982 1604 46
a 9983 287 6
a 9984 3339 7
a 9985 809 7
a 9986 9987 6
a 9986 9989 13
a 9986 9988 34
a 9987 9986 6
a 9988 7352 24
a 9988 13104 9
a 9988 9986 34
a 9989 9986 13
a 9990 8822 36
a 9991 5142 5
a 9992 11807 2
a 9992 4765 26
a 9992 4573 11
a 9993 4585 1
a 9994 11600 2
a 9995 2407 20
a 9996 1757 7
a 9997 12240 31
a 9998 12240 1
a 9998 12241 3
a 9998 4676 2
a 9999 4712 8
a 10000 4770 9
a 10000 13589 1
a 10000 4611 29
a 10001 8160 8
a 10001 901 1
a 10001 7231 21
a 10002 1641 3
a 10003 10004 4
a 10004 9355 21
a 10004 8419 1
a 10005 853 22
a 10005 8577 5
a 10006 10005 4
a 10006 139 93
a 10007 1144 9
a 10007 10960 12
a 10008 11293 4
a 10008 852 22
a 10009 11252 8
a 10009 8610 38
a 10009 11530 13
a 10010 7824 29
a 10011 2252 12
a 10012 9866 1
a 10013 10012 2
a 10013 9871 2
a 10014 10013 1
a 10015 9956 1
a 10015 9955 2
a 10016 10017 3
a 10016 7837 5
a 10017 7835 1
a 10017 7837 3
a 10018 10023 1
a 10019 7344 10
a 10019 11141 4
a 10020 10027 6
a 10020 10025 3
a 10021 10020 2
a 10022 3040 7
a 10022 11083 2
a 10023 11140 2
a 10023 12535 3
a 10024 10026 5
a 10024 10018 3
a 10025 10024 1
a 10026 11139 3
a 10026 7660 14
a 10027 12451 7
a 10028 2572 9
a 10028 2571 11
a 10028 13112 12
a 10029 9693 9
a 10030 8966 28
a 10030 10029 8
a 10031 3829 19
a 10031 8843 18
a 10031 4070 24
a 10032 8029 6
a 10033 2212 2
a 10034 2206 2
a 10034 2210 13
a 10034 3287 79
a 10035 3792 25
a 10036 4030 24
a 10037 3854 4
a 10038 3854 4
a 10039 10040 16
a 10040 3999 10
a 10040 10039 16
a 10040 2790 18
a 10041 10086 2
a 10041 12422 5
a 10042 4835 11
a 10043 3841 1
a 10043 3710 4
a 10043 3940 11
a 10044 2595 1
a 10044 2199 5
a 10044 3678 5
a 10045 10047 2
a 10045 10046 1
a 10046 9697 2
a 10048 10046 2
a 10049 9417 17
a 10050 6908 13
a 10051 7236 15
a 10051 6906 2
a 10051 6908 10
a 10052 11161 9
a 10053 9674 3
a 10053 10054 4
a 10054 13572 44
a 10055 13428 5
a 10056 6347 13
a 10056 12836 3
a 10056 6346 7
a 10056 6278 20
a 10057 5840 15
a 10058 119 19
a 10058 9577 11
a 10058 13139 13
a 10059 4780 6
a 10060 6982 4
a 10061 2858 11
a 10062 9054 8
a 10063 1128 1
a 10063 2935 6
a 10063 2861 66
a 10064 3107 21
a 10064 1129 8
a 10065 10067 4
a 10065 10064 1
a 10066 10065 5
a 10067 3119 2
a 10067 2976 18
a 10067 3019 9
a 10068 2442 33
a 10068 3099 46
a 10068 2892 26
a 10069 45 1
a 10069 9800 13
a 10069 48 22
a 10070 7749 2
a 10070 2767 5
a 10071 3095 16
a 10071 9317 11
a 10071 3153 33
a 10072 12299 10
a 10072 12300 26
a 10073 2983 3
a 10073 66 5
a 10074 8139 2
a 10075 912 5
a 10075 10076 5
a 10076 913 12
a 10076 912 7
a 10076 10075 5
a 10077 9862 3
a 10077 8165 3
a 10077 915 18
a 10078 10080 11
a 10078 376 11
a 10078 365 41
a 10079 378 11
a 10079 368 41
a 10079 377 11
a 10080 392 43
a 10080 10078 11
a 10080 377 11
a 10081 3199 4
a 10081 3201 1
a 10081 3193 11
a 10082 3773 7
a 10083 12256 2
a 10083 9952 6
a 10084 9695 3
a 10084 10149 8
a 10085 10086 13
a 10085 10041 25
a 10086 12421 1
a 10087 6918 19
a 10087 6919 16
a 10088 10087 2
a 10089 10088 7
a 10089 7739 4
a 10090 5845 5
a 10091 3173 23
a 10092 10091 6
a 10092 7740 3
a 10093 2130 7
a 10093 2129 2
a 10093 8318 9
a 10094 37 2
a 10095 8778 11
a 10095 2001 17
a 10096 898 10
a 10096 8153 2
a 10097 8150 1
a 10097 462 14
a 10098 27 31
a 10099 28 47
a 10100 10098 3
a 10100 162 4
a 10101 10103 1
a 10101 3328 19
a 10101 3326 13
a 10102 8576 41
a 10102 10239 1
a 10103 10101 1
a 10104 3329 115
a 10104 3327 15
a 10105 3370 1
a 10105 10899 5
a 10105 10900 10
a 10106 1819 13
a 10106 2014 28
a 10106 2014 45
a 10106 1855 16
a 10107 11047 2
a 10107 7334 40
a 10108 126 19
a 10108 127 32
a 10108 463 18
a 10108 12233 63
a 10109 11973 5
a 10109 9497 3
a 10109 41 3
a 10110 243 3
a 10111 7399 4
a 10111 11281 71
a 10112 11067 2
a 10112 9696 7
a 10113 6616 14
a 10113 10115 9
a 10113 6714 11
a 10114 11782 4
a 10114 6687 5
a 10114 10115 13
a 10115 6403 7
a 10115 10113 9
a 10115 10114 13
a 10116 6687 5
a 10116 6522 8
a 10116 6576 15
a 10116 10117 13
a 10117 6647 5
a 10117 6727 5
a 10117 10116 13
a 10118 6452 3
a 10119 13539 3
a 10120 3501 7
a 10120 3493 21
a 10120 3509 8
a 10121 3497 23
a 10122 3490 39
a 10123 2799 6
a 10123 44 4
a 10123 8615 7
a 10124 7673 10
a 10124 10125 4
a 10125 10070 3
a 10125 10124 4
a 10126 2330 29
a 10127 2331 20
a 10128 1874 3
a 10128 1867 43
a 10128 10129 5
a 10129 7751 1
a 10129 10128 5
a 10129 10229 10
a 10130 13048 1
a 10130 1241 19
a 10130 10226 9
a 10131 1306 13
a 10131 10132 4
a 10132 1309 12
a 10132 9705 9
a 10133 13049 2
a 10133 10134 9
a 10134 10135 8
a 10134 1252 43
a 10135 13051 2
a 10135 10139 5
a 10135 1255 40
a 10136 10228 6
a 10136 1263 30
a 10137 10227 6
a 10137 1259 23
a 10138 10137 7
a 10138 13053 2
a 10138 1257 37
a 10139 13052 2
a 10139 10138 5
a 10139 1272 39
a 10140 12798 1
a 10140 9718 4
a 10141 10151 3
a 10142 10141 10
a 10142 10140 2
a 10143 10156 3
a 10143 8715 8
a 10144 8715 11
a 10144 10145 12
a 10145 7723 8
a 10146 10154 16
a 10147 8756 16
a 10147 10141 35
a 10148 3297 14
a 10148 3262 20
a 10148 10247 21
a 10149 12564 6
a 10150 8730 8
a 10150 8730 8
a 10151 10152 1
a 10152 10153 16
a 10152 8821 37
a 10153 10152 16
a 10154 403 7
a 10154 10158 10
a 10155 10950 3
a 10155 10154 5
a 10156 10145 3
a 10157 10156 27
a 10158 8796 3
a 10158 12781 3
a 10159 12772 2
a 10159 10160 1
a 10160 12773 1
a 10160 10161 1
a 10161 8796 13
a 10162 12772 12
a 10162 10247 9
a 10163 10308 10
a 10164 10165 14
a 10165 10163 9
a 10165 8108 16
a 10166 5595 35
a 10166 5617 10
a 10166 5726 50
a 10167 5675 4
a 10168 10169 5
a 10169 10168 5
a 10169 5675 6
a 10169 5503 13
a 10170 5685 4
a 10170 5538 1
a 10170 12347 2
a 10171 11359 4
a 10171 11359 17
a 10171 5682 15
a 10171 10172 13
a 10172 5602 56
a 10172 10173 15
a 10172 10171 13
a 10173 12181 5
a 10173 10174 7
a 10173 10172 15
a 10174 5580 25
a 10174 5721 17
a 10174 10173 7
a 10175 5746 23
a 10176 5574 16
a 10177 5650 14
a 10179 12401 1
a 10179 3310 2
a 10179 10178 3
a 10180 12993 1
a 10181 5652 2
a 10182 5855 8
a 10183 5837 45
a 10184 10185 16
a 10185 4108 1
a 10185 10184 16
a 10185 4109 12
a 10186 5853 15
a 10187 5853 8
a 10187 12496 4
a 10188 12646 1
a 10188 5502 6
a 10188 8589 31
a 10189 5262 28
a 10190 5440 2
a 10191 5657 10
a 10192 6887 13
a 10193 13312 1
a 10193 12260 4
a 10193 4568 22
a 10194 5442 2
a 10195 7935 5
a 10195 10196 5
a 10195 13308 2
a 10196 13309 1
a 10196 10195 5
a 10196 12261 4
a 10197 10198 2
a 10198 10197 2
a 10198 7935 6
a 10198 5706 36
a 10199 5547 7
a 10200 5699 5
a 10201 7490 7
a 10202 10203 11
a 10203 8868 10
a 10203 10202 11
a 10203 8944 16
a 10203 5706 12
a 10204 7639 40
a 10204 13307 24
a 10204 12226 29
a 10205 9001 2
a 10205 5220 27
a 10205 5219 31
a 10206 5218 9
a 10206 5222 6
a 10206 5221 17
a 10207 5211 9
a 10207 5214 35
a 10207 8645 29
a 10208 8266 2
a 10208 10209 8
a 10208 9336 5
a 10208 9337 4
a 10209 11852 5
a 10209 10208 8
a 10209 8265 4
a 10210 10211 23
a 10211 13370 14
a 10211 10210 23
a 10212 3245 3
a 10213 10214 4
a 10213 9294 5
a 10213 10215 16
a 10214 9297 5
a 10214 10213 4
a 10214 10215 19
a 10215 10213 16
a 10215 10214 19
a 10215 9296 26
a 10216 12798 21
a 10217 13497 1
a 10217 10218 4
a 10217 13498 5
a 10218 12783 12
a 10218 212 14
a 10218 10217 4
a 10219 10220 1
a 10219 10074 17
a 10220 10219 1
a 10220 786 16
a 10221 181 1
a 10221 8011 5
a 10221 8020 15
a 10222 4028 12
a 10222 142 39
a 10222 8107 38
a 10223 12393 2
a 10223 7962 18
a 10223 12816 38
a 10224 7778 3
a 10224 7779 12
a 10224 12081 26
a 10225 13064 1
a 10225 10131 5
a 10225 1305 10
a 10226 13070 2
a 10226 10225 8
a 10226 1249 64
a 10227 13055 1
a 10227 10136 7
a 10228 13056 1
a 10228 10237 7
a 10228 1269 28
a 10229 1872 19
a 10229 13061 6
a 10229 10129 10
a 10230 10231 10
a 10230 11497 2
a 10230 1570 56
a 10231 10232 7
a 10231 10230 10
a 10232 10233 2
a 10232 10231 7
a 10232 9037 29
a 10233 10234 5
a 10233 10232 2
a 10234 10235 11
a 10234 10233 5
a 10235 10238 6
a 10235 10234 11
a 10236 1874 17
a 10236 10238 6
a 10236 11176 1
a 10237 12208 1
a 10237 1331 7
a 10238 10235 6
a 10238 10236 6
a 10239 10102 1
a 10239 7752 3
a 10239 7753 3
a 10240 3327 32
a 10240 10239 9
a 10241 6988 3
a 10241 6987 10
a 10242 8084 14
a 10243 10244 2
a 10244 10245 3
a 10244 10242 1
a 10245 10896 2
a 10246 10245 1
a 10246 10242 3
a 10247 10143 11
a 10247 10148 21
a 10248 11975 39
a 10249 5383 3
a 10249 10250 8
a 10249 5384 30
a 10250 5385 4
a 10250 10249 8
a 10250 5386 30
a 10251 6087 2
a 10252 7188 3
a 10253 7192 4
a 10253 7188 4
a 10253 7191 9
a 10254 7004 7
a 10254 6277 7
a 10254 7006 17
a 10255 10256 10
a 10256 10255 10
a 10256 6350 18
a 10256 6351 27
a 10257 6180 20
a 10257 6189 5
a 10257 6173 1
a 10258 6255 5
a 10259 11053 1
a 10259 2495 17
a 10260 4597 3
a 10260 13165 7
a 10260 10350 8
a 10261 10373 3
a 10261 730 1
a 10262 2981 1
a 10262 10261 2
a 10263 2805 1
a 10263 12905 3
a 10263 11233 19
a 10264 4621 1
a 10264 10263 24
a 10265 4720 1
a 10265 10264 16
a 10266 4650 1
a 10266 10351 6
a 10266 10265 4
a 10267 4591 1
a 10267 10266 10
a 10268 10260 4
a 10269 10270 1
a 10269 10271 1
a 10269 10268 2
a 10270 268 1
a 10270 8708 41
a 10271 10269 1
a 10271 4594 14
a 10271 12354 7
a 10272 4682 13
a 10272 12250 5
a 10273 11977 1
a 10273 13396 22
a 10274 2981 3
a 10275 4575 1
a 10276 9992 14
a 10276 96 14
a 10277 4765 1
a 10277 11807 26
a 10278 4306 2
a 10278 10277 4
a 10279 4676 2
a 10279 12504 8
a 10280 7065 1
a 10280 10279 9
a 10281 4307 1
a 10281 10280 24
a 10282 4316 2
a 10282 13356 19
a 10282 4315 28
a 10283 5660 4
a 10283 5678 21
a 10283 5678 32
a 10284 1135 24
a 10284 1122 6
a 10284 11185 2
a 10284 12246 8
a 10285 13183 12
a 10285 7827 10
a 10285 8559 20
a 10286 2670 3
a 10287 2650 21
a 10288 12323 11
a 10288 2715 12
a 10289 12323 2
a 10289 2717 15
a 10289 2683 24
a 10290 2795 5
a 10291 3348 11
a 10291 3340 7
a 10291 3335 2
a 10292 940 2
a 10292 946 6
a 10292 2068 33
a 10293 10294 11
a 10293 903 21
a 10293 902 49
a 10294 10293 11
a 10294 9200 64
a 10294 908 53
a 10295 2143 1
a 10295 3833 11
a 10295 2126 21
a 10296 3837 1
a 10296 3984 22
a 10296 3732 12
a 10297 10298 1
a 10297 1865 38
a 10297 1569 61
a 10298 10297 1
a 10298 1866 9
a 10298 9940 24
a 10299 12327 1
a 10299 10304 22
a 10300 11008 15
a 10301 10300 21
a 10301 10300 21
a 10302 11043 3
a 10303 9412 63
a 10303 11154 7
a 10304 10303 39
a 10305 7527 1
a 10305 2443 17
a 10306 10307 1
a 10306 12833 1
a 10307 13076 2
a 10307 12285 10
a 10308 8994 34
a 10308 13112 92
a 10309 10310 9
a 10309 9496 18
a 10309 9495 20
a 10310 10309 9
a 10310 12084 17
a 10310 3794 7
a 10311 4015 19
a 10312 12988 1
a 10312 10313 1
a 10312 11917 14
a 10313 10312 1
a 10313 10970 12
a 10314 10315 2
a 10314 8729 17
a 10315 10314 2
a 10315 10316 2
a 10317 12037 2
a 10317 7638 14
a 10317 11792 26
a 10318 9650 10
a 10318 3356 18
a 10318 13590 17
a 10319 3364 1
a 10319 3363 10
a 10319 10320 32
a 10320 13590 1
a 10320 2359 5
a 10320 10319 32
a 10321 3399 5
a 10321 3403 5
a 10321 10322 18
a 10322 10323 5
a 10322 10324 5
a 10322 10321 18
a 10323 3401 12
a 10323 3399 18
a 10323 10322 5
a 10324 3403 18
a 10324 3402 11
a 10324 10322 5
a 10325 2320 24
a 10326 2321 7
a 10327 3365 21
a 10328 3356 17
a 10328 3354 19
a 10328 11383 4
a 10329 11153 8
a 10329 7655 94
a 10329 3355 29
a 10330 10331 8
a 10330 9650 9
a 10330 2358 15
a 10331 10330 8
a 10331 10332 14
a 10331 3357 9
a 10332 3358 5
a 10332 10331 14
a 10332 2358 5
a 10333 5299 4
a 10333 3366 1
a 10333 12383 1
a 10334 5299 1
a 10334 5300 4
a 10334 3358 31
a 10335 10336 4
a 10335 11114 3
a 10335 11115 5
a 10336 10335 4
a 10336 10337 8
a 10336 11116 20
a 10337 10336 8
a 10338 9822 3
a 10339 10340 10
a 10340 3638 33
a 10340 11857 32
a 10340 10339 10
a 10341 8485 9
a 10341 10342 6
a 10341 7377 15
a 10342 7382 10
a 10342 10341 6
a 10342 8464 11
a 10343 5140 12
a 10344 8229 6
a 10344 10344 16
a 10344 10344 16
a 10345 11945 18
a 10345 8248 3
a 10345 10346 3
a 10346 10345 3
a 10346 8248 2
a 10346 11944 28
a 10347 10348 3
a 10347 10348 6
a 10347 8251 8
a 10348 10347 3
a 10348 10347 6
a 10348 8232 43
a 10349 12872 2
a 10350 10260 8
a 10351 10266 6
a 10352 4728 2
a 10353 2870 3
a 10354 9811 12
a 10355 6281 6
a 10356 6277 15
a 10357 11554 22
a 10358 5415 3
a 10359 6304 5
a 10359 6305 32
a 10359 10360 16
a 10360 10359 16
a 10361 5591 46
a 10361 6249 8
a 10361 12269 10
a 10362 11138 16
a 10362 8333 3
a 10362 5585 14
a 10363 11292 2
a 10364 9546 2
a 10364 9555 8
a 10364 8991 12
a 10365 9569 2
a 10365 9561 4
a 10365 10366 17
a 10366 9549 5
a 10366 9560 4
a 10366 10365 17
a 10367 6176 6
a 10368 6196 5
a 10369 1664 9
a 10369 11323 9
a 10370 12180 22
a 10370 13149 11
a 10370 5430 7
a 10371 5704 16
a 10372 5424 6
a 10372 5427 33
a 10373 9852 16
a 10374 11053 1
a 10374 10274 4
a 10375 10376 17
a 10376 5507 6
a 10376 13149 11
a 10376 10375 17
a 10377 12266 1
a 10377 408 4
a 10377 5428 35
a 10378 4242 2
a 10379 3923 13
a 10380 3919 5
a 10381 10382 8
a 10382 10381 8
a 10382 3905 6
a 10382 4042 9
a 10383 9382 27
a 10384 11659 4
a 10384 10392 2
a 10384 10385 17
a 10385 10384 17
a 10386 11572 2
a 10387 11633 10
a 10387 10388 9
a 10387 10390 9
a 10388 10387 9
a 10389 10390 3
a 10390 10389 3
a 10390 6002 8
a 10390 10387 9
a 10391 7360 6
a 10392 10384 2
a 10392 11628 18
a 10392 7361 13
a 10393 10394 14
a 10394 10393 14
a 10394 10395 13
a 10394 3631 6
a 10395 10394 13
a 10396 3805 17
a 10396 3887 24
a 10396 11947 12
a 10397 7559 2
a 10397 3930 1
a 10398 5813 4
a 10399 10400 12
a 10400 7904 1
a 10400 6339 8
a 10400 10399 12
a 10401 6339 3
a 10401 10402 18
a 10401 10403 3
a 10402 10401 18
a 10403 10404 22
a 10403 10401 3
a 10403 7897 8
a 10404 10403 22
a 10405 10407 13
a 10406 10407 12
a 10406 6358 6
a 10406 6355 74
a 10407 10406 12
a 10407 6358 39
a 10407 10405 13
a 10408 10410 5
a 10408 12864 7
a 10408 11892 6
a 10409 11892 5
a 10409 7127 6
a 10409 10410 8
a 10410 7126 5
a 10410 10408 5
a 10410 10409 8
a 10411 5599 3
a 10411 13272 1
a 10412 10413 7
a 10412 5467 46
a 10412 5822 11
a 10413 10412 7
a 10414 5537 6
a 10414 5474 21
a 10414 10415 9
a 10415 10414 9
a 10416 13351 1
a 10416 5488 19
a 10416 5599 23
a 10417 12646 15
a 10418 5818 26
a 10419 10420 8
a 10420 10419 8
a 10420 10421 2
a 10420 10422 4
a 10421 10420 2
a 10422 5825 3
a 10422 10420 4
a 10422 10423 25
a 10423 10422 25
a 10424 10427 21
a 10425 10426 14
a 10426 5467 104
a 10426 10425 14
a 10426 5826 7
a 10427 7437 17
a 10427 12313 4
a 10427 10424 21
a 10428 10429 7
a 10429 9126 12
a 10429 10428 7
a 10429 5830 14
a 10430 5565 14
a 10431 10432 2
a 10432 10431 2
a 10432 11856 55
a 10432 10433 7
a 10433 10434 12
a 10433 10432 7
a 10433 11547 19
a 10434 10433 12
a 10435 10436 8
a 10436 10435 8
a 10436 10437 8
a 10436 10438 4
a 10437 10436 8
a 10437 4236 11
a 10437 7640 8
a 10438 10436 4
a 10439 5798 7
a 10440 6334 27
a 10441 13111 2
a 10441 7110 5
a 10442 8668 2
a 10442 10444 9
a 10443 10445 1
a 10443 5885 14
a 10444 10443 1
a 10444 11348 2
a 10444 10445 2
a 10445 10444 2
a 10445 8668 9
a 10446 8830 2
a 10446 10447 4
a 10446 10447 12
a 10447 11050 5
a 10448 5757 30
a 10449 5770 17
a 10450 5778 14
a 10451 2438 5
a 10451 5639 1
a 10452 10453 32
a 10453 10454 2
a 10453 10452 32
a 10453 10455 30
a 10454 10453 2
a 10454 5570 11
a 10454 5786 13
a 10455 10453 30
a 10456 5777 6
a 10456 11875 18
a 10456 5779 4
a 10457 5769 22
a 10458 5772 14
a 10459 5773 18
a 10460 5716 17
a 10461 10462 13
a 10462 10461 13
a 10462 11993 4
a 10462 5504 40
a 10463 5766 5
a 10464 13255 3
a 10464 10465 6
a 10464 5374 22
a 10465 10464 6
a 10466 10467 11
a 10467 10468 4
a 10467 10466 11
a 10467 10469 12
a 10468 10467 4
a 10469 11321 1
a 10469 10467 12
a 10469 5351 14
a 10470 5426 58
a 10470 11282 15
a 10470 5424 28
a 10471 6322 2
a 10472 10473 8
a 10473 5135 61
a 10473 5136 15
a 10473 10472 8
a 10474 5404 8
a 10474 5400 4
a 10474 5405 31
a 10475 8211 1
a 10475 10476 3
a 10475 8207 10
a 10476 10475 3
a 10477 5278 1
a 10478 5594 3
a 10478 7495 34
a 10478 5485 13
a 10479 5756 5
a 10480 5725 36
a 10480 5624 14
a 10480 5605 22
a 10481 4913 5
a 10482 11529 19
a 10483 9629 15
a 10484 6237 6
a 10484 6208 27
a 10484 6209 15
a 10484 6235 15
a 10485 7779 2
a 10485 11931 29
a 10485 10486 15
a 10486 10485 15
a 10487 9507 11
a 10488 9628 4
a 10489 8745 79
a 10490 10491 5
a 10491 4912 8
a 10491 4911 22
a 10491 10490 5
a 10492 4957 19
a 10493 7987 1
a 10494 10495 6
a 10495 10494 6
a 10495 11929 23
a 10495 7998 13
a 10496 7991 5
a 10496 8006 13
a 10496 10497 6
a 10497 10508 10
a 10497 10496 6
a 10497 7989 5
a 10498 10500 3
a 10498 10499 7
a 10498 8221 8
a 10499 8005 7
a 10499 10498 7
a 10499 8003 8
a 10500 10498 3
a 10500 4940 5
a 10500 12008 13
a 10501 4942 7
a 10501 9421 6
a 10501 9599 42
a 10502 4850 14
a 10503 4857 6
a 10504 12663 2
a 10505 9508 33
a 10506 4487 29
a 10506 12478 4
a 10507 7778 8
a 10507 7808 3
a 10508 10497 10
a 10509 7985 10
a 10510 7978 5
a 10510 13250 19
a 10510 10511 12
a 10511 7791 2
a 10511 7774 59
a 10511 10510 12
a 10512 5490 8
a 10512 5507 13
a 10512 11157 14
a 10513 5756 21
a 10514 10515 14
a 10514 10515 19
a 10514 10516 20
a 10515 10514 14
a 10515 10514 19
a 10515 10516 4
a 10516 10514 20
a 10516 10515 4
a 10516 5729 17
a 10517 7011 6
a 10517 7009 5
a 10517 10518 10
a 10518 10517 10
a 10519 7011 5
a 10519 10520 7
a 10519 7010 30
a 10520 10519 7
a 10521 6456 2
a 10521 10670 35
a 10521 11019 8
a 10522 4515 9
a 10523 4885 13
a 10523 4880 12
a 10523 13342 27
a 10523 4888 9
a 10524 10525 10
a 10524 10531 13
a 10525 6579 1
a 10525 10524 10
a 10526 10531 3
a 10526 6579 16
a 10527 10528 3
a 10527 11876 16
a 10528 10525 1
a 10528 10529 8
a 10529 10528 8
a 10530 11351 4
a 10530 10524 13
a 10531 6575 11
a 10532 9422 3
a 10532 11876 14
a 10533 4526 16
a 10533 4563 45
a 10533 4426 11
a 10534 10535 12
a 10535 4421 14
a 10535 10534 12
a 10535 4472 5
a 10536 4534 6
a 10537 4482 16
a 10537 10538 5
a 10537 13545 6
a 10538 13546 7
a 10538 10537 5
a 10538 13007 19
a 10539 5112 12
a 10539 10541 46
a 10539 8899 45
a 10540 5110 56
a 10541 5113 11
a 10541 5119 1
a 10541 10539 46
a 10542 9288 11
a 10543 9287 3
a 10543 9283 14
a 10543 9288 10
a 10544 9289 6
a 10545 6496 5
a 10546 6660 21
a 10546 9460 14
a 10546 10767 6
a 10547 6493 34
a 10547 5115 17
a 10547 5114 20
a 10548 10551 7
a 10548 11709 15
a 10548 11716 12
a 10549 10550 9
a 10550 10551 3
a 10550 10549 9
a 10550 12720 9
a 10551 10548 7
a 10551 10550 3
a 10551 4158 16
a 10552 10747 5
a 10552 10597 5
a 10552 9197 7
a 10553 10554 4
a 10553 10577 3
a 10553 10588 6
a 10554 10597 5
a 10554 10553 4
a 10554 10579 11
a 10555 10591 2
a 10555 10579 2
a 10555 10589 5
a 10556 10560 4
a 10556 10574 6
a 10557 9225 4
a 10557 10558 16
a 10557 10573 8
a 10558 10557 16
a 10558 10559 2
a 10558 10574 6
a 10559 10560 7
a 10559 10558 2
a 10559 9209 15
a 10560 10559 7
a 10560 6741 14
a 10561 4967 6
a 10561 10601 4
a 10561 10563 6
a 10561 10566 11
a 10562 10587 5
a 10562 10564 6
a 10562 10569 9
a 10563 10571 4
a 10563 10561 6
a 10563 10564 12
a 10564 10568 4
a 10564 10562 6
a 10564 10563 12
a 10565 10585 4
a 10565 11608 12
a 10565 4960 6
a 10565 10567 14
a 10566 10586 7
a 10566 10561 11
a 10566 10584 5
a 10567 10569 5
a 10567 10565 14
a 10567 11613 11
a 10568 4965 3
a 10568 4964 8
a 10568 10564 4
a 10568 11915 14
a 10569 10586 4
a 10569 10567 5
a 10569 10562 9
a 10569 10585 13
a 10570 8433 6
a 10570 11238 13
a 10570 4965 19
a 10571 11238 6
a 10571 10563 4
a 10571 4965 8
a 10572 9211 5
a 10572 9212 11
a 10572 9223 16
a 10573 9212 2
a 10573 10557 8
a 10573 8427 27
a 10574 10556 6
a 10574 10558 6
a 10574 9225 12
a 10575 10592 4
a 10575 10600 8
a 10575 10589 5
a 10576 10589 5
a 10576 9210 4
a 10576 9213 8
a 10577 13366 6
a 10577 10553 3
a 10577 9217 16
a 10577 10747 14
a 10578 10590 5
a 10578 9197 4
a 10578 10598 5
a 10579 10555 2
a 10579 10598 5
a 10579 10554 11
a 10580 11238 4
a 10580 10581 12
a 10580 9214 13
a 10581 9218 2
a 10581 10580 12
a 10581 9215 8
a 10582 10749 4
a 10582 10748 13
a 10582 11918 14
a 10583 3122 5
a 10583 4963 4
a 10583 11605 16
a 10584 4963 5
a 10584 8574 9
a 10584 10566 5
a 10585 8575 4
a 10585 10565 4
a 10585 11878 4
a 10585 10569 13
a 10586 10569 4
a 10586 10566 7
a 10586 8575 12
a 10586 10587 9
a 10587 10601 3
a 10587 10562 5
a 10587 10586 9
a 10588 10600 6
a 10588 10553 6
a 10588 10589 8
a 10589 10576 5
a 10589 10555 5
a 10589 10588 8
a 10589 10575 5
a 10590 2977 4
a 10590 10578 5
a 10590 10591 10
a 10591 9210 4
a 10591 10555 2
a 10591 10590 10
a 10592 10575 4
a 10593 9215 4
a 10593 10594 9
a 10593 9216 4
a 10594 9219 4
a 10594 9218 4
a 10594 10593 9
a 10595 9216 5
a 10595 9219 5
a 10595 10596 7
a 10596 9220 4
a 10596 9217 4
a 10596 10595 7
a 10597 10552 5
a 10597 10554 5
a 10597 13326 2
a 10597 10598 11
a 10598 10578 5
a 10598 10579 5
a 10598 10597 11
a 10599 10600 4
a 10600 10599 4
a 10600 10575 8
a 10600 10588 6
a 10601 10561 4
a 10601 10587 3
a 10601 12536 2
a 10602 10604 12
a 10603 9259 5
a 10603 12716 17
a 10603 11523 12
a 10604 9261 3
a 10604 10602 12
a 10604 9906 10
a 10605 10606 13
a 10605 6765 33
a 10605 9262 6
a 10606 9261 9
a 10606 9906 6
a 10606 10605 13
a 10607 4968 8
a 10607 10619 6
a 10607 10721 20
a 10607 10622 7
a 10607 5007 28
a 10608 11422 17
a 10608 10721 19
a 10608 10724 27
a 10609 733 11
a 10609 6765 46
a 10610 12718 5
a 10610 6781 2
a 10610 9969 20
a 10611 10612 7
a 10611 12719 4
a 10611 10614 5
a 10612 9330 5
a 10612 12718 4
a 10612 10611 7
a 10613 6780 6
a 10613 9330 4
a 10613 10617 7
a 10614 9330 6
a 10614 10611 5
a 10614 10617 4
a 10615 10616 5
a 10615 10618 15
a 10615 11453 12
a 10616 10615 5
a 10616 6781 10
a 10616 12719 2
a 10617 10614 4
a 10617 10618 1
a 10617 10613 7
a 10618 10617 1
a 10618 11646 1
a 10618 10615 15
a 10619 10622 1
a 10619 10607 6
a 10619 10620 7
a 10620 4971 1
a 10620 10769 25
a 10620 10619 7
a 10621 10721 9
a 10622 10619 1
a 10622 10607 7
a 10622 4971 6
a 10623 6446 10
a 10623 6478 54
a 10623 9188 55
a 10624 6391 13
a 10624 6645 11
a 10625 12028 22
a 10625 6737 32
a 10625 9000 44
a 10626 10627 16
a 10627 12707 6
a 10627 11571 3
a 10627 10626 16
a 10628 6613 12
a 10629 5343 11
a 10630 5312 2
a 10630 10631 23
a 10630 5343 44
a 10631 3608 3
a 10631 5358 27
a 10631 10630 23
a 10632 10633 13
a 10632 6697 11
a 10632 6527 16
a 10633 7369 6
a 10633 6527 7
a 10633 10632 13
a 10634 6578 3
a 10635 6725 5
a 10636 9135 14
a 10637 6388 13
a 10638 6508 23
a 10639 5021 9
a 10640 5029 9
a 10640 5030 17
a 10640 5001 9
a 10641 5064 2
a 10642 5357 24
a 10643 7256 8
a 10643 5093 15
a 10643 5081 23
a 10644 9963 4
a 10644 5350 18
a 10644 10645 25
a 10645 5347 8
a 10645 3601 12
a 10645 10644 25
a 10646 5309 2
a 10646 11760 34
a 10646 13541 17
a 10647 12952 3
a 10647 7378 5
a 10647 7378 21
a 10647 7378 22
a 10648 6904 6
a 10648 10654 20
a 10648 7376 20
a 10649 10650 12
a 10649 6902 5
a 10649 7379 16
a 10650 10649 12
a 10650 10651 8
a 10650 6904 17
a 10651 6904 7
a 10651 6902 13
a 10651 10650 8
a 10652 7379 2
a 10653 5044 4
a 10654 7379 10
a 10654 6902 6
a 10654 10648 20
a 10655 5099 2
a 10655 10656 5
a 10655 5098 5
a 10656 10655 5
a 10657 5066 2
a 10658 7076 23
a 10659 7321 23
a 10659 9291 29
a 10659 7320 13
a 10660 7077 7
a 10660 9081 2
a 10660 6372 39
a 10661 12705 5
a 10661 6626 24
a 10661 9170 15
a 10662 6672 22
a 10663 6466 5
a 10663 10664 18
a 10663 6497 9
a 10664 6501 1
a 10664 10663 18
a 10664 6620 10
a 10665 5341 27
a 10666 8398 13
a 10666 10669 26
a 10666 6706 8
a 10667 9181 20
a 10668 6761 4
a 10669 6558 9
a 10669 6473 16
a 10669 6483 13
a 10669 10666 26
a 10670 11656 8
a 10670 10521 35
a 10670 11914 17
a 10671 6621 11
a 10672 10708 6
a 10673 6435 29
a 10674 6533 24
a 10675 6544 54
a 10676 11196 11
a 10676 4157 7
a 10676 6470 4
a 10677 10680 5
a 10677 12825 1
a 10677 10683 8
a 10678 10684 2
a 10679 10680 8
a 10679 10682 5
a 10679 10683 4
a 10680 10679 8
a 10680 10677 5
a 10680 10681 5
a 10681 10680 5
a 10681 11225 4
a 10681 10688 4
a 10682 10679 5
a 10682 10686 4
a 10682 11225 4
a 10683 10679 4
a 10683 10677 8
a 10683 10690 4
a 10684 10678 2
a 10684 10690 4
a 10684 12162 11
a 10685 10686 4
a 10685 11228 2
a 10685 11227 8
a 10686 10685 4
a 10686 10682 4
a 10686 10690 9
a 10687 11226 3
a 10687 10688 1
a 10687 11229 5
a 10688 10681 4
a 10688 10687 1
a 10688 10689 9
a 10689 10688 9
a 10689 12825 3
a 10689 11229 13
a 10690 10683 4
a 10690 10684 4
a 10690 10686 9
a 10691 9191 1
a 10691 6550 16
a 10691 12825 6
a 10692 6498 2
a 10693 10694 5
a 10694 9175 3
a 10694 10693 5
a 10694 9176 6
a 10695 9191 12
a 10695 57 2
a 10695 6470 11
a 10696 6639 20
a 10697 9898 21
a 10698 6791 5
a 10699 6800 4
a 10699 9918 4
a 10699 10700 8
a 10700 10699 8
a 10700 9919 6
a 10700 9920 6
a 10701 13503 6
a 10701 11413 8
a 10701 9837 5
a 10702 11414 8
a 10702 11413 4
a 10702 10703 3
a 10703 10702 3
a 10704 11412 12
a 10705 13488 2
a 10705 11434 12
a 10705 13487 25
a 10705 6797 17
a 10706 10707 13
a 10707 11412 3
a 10707 10706 13
a 10707 6798 6
a 10708 6682 19
a 10708 10672 6
a 10708 10709 23
a 10709 10708 23
a 10710 6732 7
a 10710 6433 43
a 10710 10711 16
a 10711 10710 16
a 10712 4285 44
a 10713 10717 3
a 10714 10715 3
a 10715 10717 7
a 10715 10714 3
a 10715 10716 8
a 10716 8885 4
a 10716 3483 13
a 10716 10715 8
a 10717 10713 3
a 10717 10715 7
a 10717 10718 8
a 10718 8885 3
a 10718 4369 11
a 10718 10717 8
a 10718 8886 4
a 10719 153 1
a 10719 8598 7
a 10720 6690 13
a 10721 10607 20
a 10721 10608 19
a 10721 10621 9
a 10722 10728 6
a 10723 10731 8
a 10724 10727 5
a 10724 10732 4
a 10724 10608 27
a 10725 10727 8
a 10726 10727 6
a 10727 10728 4
a 10727 10724 5
a 10727 10725 8
a 10727 10726 6
a 10728 10733 8
a 10728 10727 4
a 10728 10731 12
a 10728 10722 6
a 10729 5007 7
a 10730 10731 5
a 10731 10730 5
a 10731 10728 12
a 10731 10723 8
a 10732 10724 4
a 10733 10728 8
a 10734 10735 3
a 10734 8474 13
a 10734 8469 14
a 10735 10734 3
a 10736 6490 29
a 10736 6490 37
a 10736 6440 1
a 10737 13315 1
a 10737 7373 13
a 10737 8469 8
a 10738 6634 14
a 10739 6458 25
a 10740 8457 1
a 10741 8457 5
a 10742 9290 4
a 10743 9290 3
a 10744 6388 1
a 10744 6508 18
a 10744 6605 8
a 10745 4989 9
a 10745 10746 6
a 10745 4996 37
a 10746 10745 6
a 10747 4962 5
a 10747 10552 5
a 10747 10577 14
a 10748 12537 4
a 10748 4961 4
a 10748 10582 13
a 10748 11601 8
a 10749 10582 4
a 10749 13366 10
a 10749 4961 13
a 10750 11608 8
a 10750 10751 9
a 10750 10752 7
a 10751 2893 14
a 10751 11877 13
a 10751 10750 9
a 10752 12157 2
a 10752 10750 7
a 10753 10755 11
a 10754 11770 7
a 10755 11770 4
a 10755 4953 10
a 10755 10753 11
a 10756 4333 4
a 10756 10759 6
a 10757 4154 1
a 10758 54 2
a 10758 10757 6
a 10759 8220 1
a 10760 4954 24
a 10761 10762 9
a 10762 7983 5
a 10762 10761 9
a 10763 10764 14
a 10764 6800 7
a 10764 6813 7
a 10764 10763 14
a 10765 11448 4
a 10765 9237 5
a 10765 10766 6
a 10766 10765 6
a 10767 10546 6
a 10768 6438 4
a 10769 10771 12
a 10769 10770 4
a 10769 10620 25
a 10770 9270 2
a 10770 10769 4
a 10771 10769 12
a 10771 10770 6
a 10772 7069 23
a 10773 6828 17
a 10774 9897 12
a 10774 8146 21
a 10775 6790 3
a 10776 11840 8
a 10777 6848 3
a 10777 6844 7
a 10777 10779 12
a 10777 10778 11
a 10778 10777 11
a 10779 9893 2
a 10779 10777 12
a 10779 6846 8
a 10780 6843 3
a 10781 8389 4
a 10782 2315 19
a 10782 2292 9
a 10782 10783 31
a 10783 2323 15
a 10783 2314 9
a 10783 10782 31
a 10784 2337 29
a 10785 2330 9
a 10786 10787 11
a 10787 2343 6
a 10787 2365 15
a 10787 10786 11
a 10788 10789 9
a 10788 10790 2
a 10788 10791 16
a 10789 10788 9
a 10790 10788 2
a 10791 4835 1
a 10791 2366 32
a 10791 10788 16
a 10792 2293 4
a 10794 7490 29
a 10795 6866 13
a 10795 10808 26
a 10795 6868 7
a 10796 12801 15
a 10796 4904 6
a 10797 7009 8
a 10798 4561 3
a 10799 3429 12
a 10799 11986 2
a 10800 12283 4
a 10800 10801 32
a 10801 10802 4
a 10801 10800 32
a 10802 10801 4
a 10802 7813 21
a 10802 12283 36
a 10803 10805 6
a 10803 856 12
a 10803 10804 5
a 10804 10803 5
a 10805 13159 8
a 10805 10803 6
a 10806 10807 10
a 10807 10808 3
a 10807 9327 6
a 10807 10806 10
a 10808 10807 3
a 10808 6867 5
a 10808 10795 26
a 10809 10810 3
a 10809 10811 4
a 10809 763 89
a 10810 3569 4
a 10810 10811 3
a 10810 10809 3
a 10811 10810 3
a 10811 10809 4
a 10811 762 90
a 10811 764 22
a 10812 10936 9
a 10812 5144 32
a 10812 5147 13
a 10813 2856 2
a 10813 10814 16
a 10813 3113 12
a 10814 10813 16
a 10815 9706 5
a 10815 7292 18
a 10816 7849 2
a 10816 10817 5
a 10817 9038 1
a 10818 12844 62
a 10818 12845 8
a 10819 11437 8
a 10820 10837 1
a 10820 2453 14
a 10820 10821 39
a 10821 8965 2
a 10821 1539 15
a 10821 10823 29
a 10822 12252 2
a 10822 3211 22
a 10822 10820 39
a 10823 11335 3
a 10823 11334 8
a 10824 6997 39
a 10824 165 37
a 10824 9978 47
a 10825 11108 2
a 10825 5148 2
a 10826 1659 2
a 10826 11761 8
a 10827 10828 2
a 10827 150 8
a 10828 7801 8
a 10828 10827 2
a 10829 10830 21
a 10830 7603 1
a 10830 7170 2
a 10830 10829 21
a 10831 10833 6
a 10832 10833 8
a 10833 4196 16
a 10833 10831 6
a 10833 10832 8
a 10834 12245 10
a 10834 7171 14
a 10834 5873 8
a 10835 10836 5
a 10836 10835 5
a 10836 5882 23
a 10836 5883 5
a 10837 10820 1
a 10837 8965 19
a 10837 11160 2
a 10838 6171 6
a 10838 12567 2
a 10838 6070 13
a 10839 10840 21
a 10840 6213 4
a 10840 95 28
a 10840 10839 21
a 10841 9463 1
a 10842 12542 2
a 10842 13118 27
a 10842 10844 20
a 10843 7180 6
a 10843 10844 2
a 10843 10845 10
a 10844 11864 46
a 10844 10842 20
a 10844 10843 2
a 10845 7176 15
a 10845 9463 4
a 10845 10843 10
a 10846 10850 3
a 10846 6338 6
a 10846 10847 7
a 10847 10846 7
a 10848 10853 7
a 10848 10850 8
a 10848 10849 11
a 10849 10848 11
a 10850 10848 8
a 10850 10846 3
a 10850 10851 13
a 10851 10850 13
a 10852 10853 9
a 10853 10848 7
a 10853 10852 9
a 10853 10854 4
a 10853 7897 40
a 10854 10853 4
a 10855 5796 3
a 10855 5878 8
a 10855 11863 22
a 10856 13615 2
a 10856 7396 20
a 10856 10857 57
a 10857 7284 10
a 10858 10856 13
a 10858 38 2
a 10859 10860 9
a 10860 10864 3
a 10860 13114 3
a 10860 10859 9
a 10861 10865 6
a 10862 10864 9
a 10863 11705 7
a 10864 10860 3
a 10864 11705 1
a 10864 10862 9
a 10865 10861 6
a 10865 13114 11
a 10865 4211 30
a 10866 6041 3
a 10867 6034 4
a 10868 10869 7
a 10868 6035 8
a 10868 6036 12
a 10869 10868 7
a 10870 6055 13
a 10871 6056 5
a 10872 9608 17
a 10872 4101 2
a 10872 13357 3
a 10873 10874 7
a 10873 4106 11
a 10873 8314 19
a 10874 10873 7
a 10875 4106 7
a 10876 10877 23
a 10877 4282 8
a 10877 4283 9
a 10877 10876 23
a 10878 10879 10
a 10878 10883 9
a 10878 12737 17
a 10879 10878 10
a 10880 4427 2
a 10880 4488 15
a 10881 10882 5
a 10882 10881 5
a 10882 10883 5
a 10882 11274 10
a 10883 10882 5
a 10883 4148 9
a 10883 10878 9
a 10884 8784 9
a 10884 12312 9
a 10884 10885 11
a 10885 10884 11
a 10886 10887 8
a 10887 7483 8
a 10887 10889 6
a 10887 10886 8
a 10888 10889 7
a 10889 10887 6
a 10889 7481 8
a 10889 10888 7
a 10890 8101 9
a 10891 10892 30
a 10892 5996 11
a 10892 5984 6
a 10892 10891 30
a 10893 7271 13
a 10894 8092 3
a 10894 10893 6
a 10895 7708 3
a 10896 10895 8
a 10896 32 2
a 10897 8089 9
a 10898 10897 5
a 10898 2450 3
a 10899 10105 5
a 10899 2353 6
a 10899 11424 30
a 10900 10105 10
a 10900 3385 11
a 10900 10901 18
a 10901 10900 18
a 10901 3384 10
a 10901 2353 8
a 10902 2373 9
a 10903 10904 3
a 10904 3751 8
a 10904 10903 3
a 10904 4018 21
a 10905 8099 3
a 10905 12318 2
a 10905 11264 10
a 10906 3364 3
a 10907 7608 9
a 10907 11927 10
a 10907 12779 15
a 10908 13033 1
a 10908 10909 3
a 10909 7278 5
a 10910 401 1
a 10911 2275 9
a 10911 2280 35
a 10911 11271 12
a 10912 10913 2
a 10912 12211 6
a 10913 10912 2
a 10913 10915 16
a 10914 3290 14
a 10914 10915 3
a 10915 11885 4
a 10915 12196 9
a 10915 10914 3
a 10916 10917 2
a 10916 7628 9
a 10917 10916 2
a 10917 7623 19
a 10918 10919 2
a 10918 7626 3
a 10919 10918 2
a 10919 3266 7
a 10920 10211 14
a 10920 2220 19
a 10921 7762 14
a 10922 8810 1
a 10922 11998 4
a 10922 8815 8
a 10923 8809 8
a 10923 11998 12
a 10924 2723 2
a 10924 8833 12
a 10925 10926 14
a 10926 11061 1
a 10926 10925 14
a 10927 10928 2
a 10927 7630 7
a 10928 10927 2
a 10928 3660 21
a 10929 3891 2
a 10929 11064 29
a 10930 10931 13
a 10931 2671 16
a 10931 8690 4
a 10931 10930 13
a 10932 10933 1
a 10933 10932 1
a 10933 9757 14
a 10933 12608 14
a 10934 164 10
a 10934 9504 2
a 10936 10812 9
a 10937 11681 4
a 10937 9328 21
a 10937 6550 6
a 10939 3569 25
a 10940 6916 18
a 10941 6957 4
a 10941 12459 2
a 10942 6925 2
a 10942 9069 1
a 10943 8817 10
a 10943 8819 12
a 10943 12741 13
a 10944 135 10
a 10944 12584 1
a 10944 42 67
a 10945 13573 9
a 10945 9713 10
a 10946 10947 7
a 10947 10946 7
a 10947 9539 14
a 10947 8601 33
a 10948 7327 6
a 10948 7326 14
a 10948 3555 18
a 10949 8373 1
a 10949 10960 18
a 10950 10159 3
a 10950 12773 2
a 10951 10953 11
a 10951 10952 16
a 10951 13542 20
a 10952 10951 16
a 10953 1938 6
a 10953 10951 11
a 10953 1993 14
a 10954 1991 18
a 10955 10956 26
a 10956 3148 10
a 10956 10955 26
a 10956 2925 25
a 10957 10958 64
a 10957 11092 3
a 10958 10957 64
a 10958 10959 7
a 10959 10960 15
a 10959 11289 10
a 10960 10007 12
a 10960 10959 15
a 10960 8373 18
a 10961 13369 27
a 10961 2363 6
a 10962 10997 1
a 10962 11959 2
a 10963 2680 18
a 10964 8657 8
a 10965 10966 7
a 10966 10965 7
a 10966 10968 4
a 10966 12593 8
a 10967 10968 7
a 10968 10967 7
a 10968 10966 4
a 10968 8657 5
a 10969 10970 12
a 10970 10313 12
a 10970 8619 7
a 10970 10969 12
a 10971 13214 7
a 10971 10972 13
a 10971 8632 12
a 10972 8658 6
a 10972 10973 7
a 10972 10971 13
a 10973 10972 7
a 10974 13564 7
a 10974 8638 9
a 10974 13563 3
a 10975 4026 6
a 10975 8931 6
a 10976 3658 19
a 10977 3753 12
a 10978 3296 7
a 10979 7767 14
a 10980 3286 1
a 10980 3237 11
a 10980 3291 30
a 10981 13017 1
a 10981 8932 16
a 10982 10981 1
a 10982 11179 17
a 10983 13234 2
a 10983 8537 2
a 10983 11235 19
a 10984 10985 9
a 10985 10984 9
a 10985 3257 27
a 10985 3252 26
a 10986 4552 11
a 10986 4393 11
a 10986 10987 32
a 10987 4400 7
a 10987 10988 7
a 10987 10986 32
a 10988 10987 7
a 10988 4542 8
a 10988 4393 32
a 10989 2147 1
a 10990 859 2
a 10991 11979 2
a 10992 9794 1
a 10992 13372 6
a 10993 3585 1
a 10994 8321 2
a 10994 8322 9
a 10994 12624 7
a 10995 5934 1
a 10995 11010 18
a 10995 12516 5
a 10996 7201 1
a 10996 10995 2
a 10996 7461 15
a 10997 12551 2
a 10997 10962 1
a 10998 13087 21
a 10998 4777 11
a 10998 13086 48
a 10999 7729 6
a 10999 426 9
a 10999 3539 11
a 11000 3128 15
a 11000 3046 15
a 11001 10052 5
a 11001 1863 1
a 11002 774 10
a 11003 74 1
a 11003 12311 18
a 11004 580 35
a 11005 10083 1
a 11006 10301 52
a 11007 10299 39
a 11008 11174 89
a 11008 8164 58
a 11009 7206 9
a 11010 13109 1
a 11010 10995 18
a 11010 5939 8
a 11010 12632 19
a 11011 7459 9
a 11011 5939 22
a 11011 5938 19
a 11012 8342 3
a 11013 8322 13
a 11014 11015 16
a 11014 3307 8
a 11015 11016 11
a 11015 11016 18
a 11015 11016 29
a 11015 11014 16
a 11016 11015 11
a 11016 11015 18
a 11016 11015 29
a 11017 11433 2
a 11018 4610 2
a 11019 6648 1
a 11019 11170 22
a 11019 10521 8
a 11020 11021 28
a 11021 9606 2
a 11021 227 4
a 11021 11020 28
a 11022 416 2
a 11023 25 8
a 11023 728 6
a 11024 8503 24
a 11025 11026 16
a 11026 12149 11
a 11026 1316 11
a 11026 11025 16
a 11027 863 5
a 11028 7393 98
a 11028 12176 8
a 11029 11032 1
a 11029 9450 19
a 11030 12160 9
a 11030 11031 2
a 11031 7289 2
a 11032 11029 1
a 11032 11033 10
a 11033 12160 1
a 11033 11031 9
a 11034 1196 16
a 11034 11035 24
a 11034 1200 15
a 11035 13520 3
a 11035 1112 7
a 11035 11034 24
a 11036 8923 19
a 11036 7644 17
a 11037 11038 14
a 11038 3236 1
a 11038 3289 12
a 11038 11037 14
a 11039 8689 21
a 11040 8307 98
a 11041 768 28
a 11041 758 59
a 11041 757 32
a 11042 7436 2
a 11043 1103 3
a 11043 10949 1
a 11044 1867 6
a 11044 2937 6
a 11044 1873 28
a 11045 4516 5
a 11047 12194 2
a 11047 11046 6
a 11048 7444 2
a 11048 11511 2
a 11048 12588 15
a 11049 7111 1
a 11049 5754 3
a 11049 11893 6
a 11050 7601 2
a 11050 11051 3
a 11051 7602 2
a 11051 7563 6
a 11052 4615 2
a 11052 13163 20
a 11053 730 1
a 11053 10274 1
a 11054 2291 33
a 11055 11054 29
a 11055 7968 5
a 11056 11057 3
a 11056 7415 15
a 11057 3942 1
a 11057 12525 3
a 11058 7409 11
a 11058 11059 2
a 11059 8069 10
a 11059 11058 2
a 11060 9472 1
a 11060 11061 2
a 11061 11060 2
a 11061 10929 9
a 11062 8671 1
a 11062 1804 17
a 11063 11064 1
a 11063 11116 5
a 11064 11063 1
a 11064 11062 2
a 11065 2486 1
a 11065 9696 2
a 11066 11042 3
a 11067 11066 2
a 11067 11065 2
a 11068 7270 6
a 11069 93 3
a 11069 92 6
a 11070 1085 14
a 11070 93 3
a 11070 11069 6
a 11071 87 1
a 11071 7581 3
a 11071 11073 7
a 11072 11071 6
a 11072 2528 11
a 11073 87 7
a 11073 3090 30
a 11074 6989 40
a 11074 9708 3
a 11075 13374 38
a 11075 7728 2
a 11076 9402 13
a 11077 9430 6
a 11077 11078 19
a 11078 11077 19
a 11078 2200 22
a 11079 10099 3
a 11079 7391 11
a 11080 7341 28
a 11081 11082 2
a 11081 11950 26
a 11082 7431 20
a 11083 12534 1
a 11084 2189 16
a 11084 11027 8
a 11085 2860 8
a 11085 3323 8
a 11085 1776 1
a 11086 2320 22
a 11087 2336 20
a 11088 5735 11
a 11089 2602 21
a 11090 11091 18
a 11090 13405 3
a 11090 2080 33
a 11091 11090 18
a 11091 11093 1
a 11092 11091 3
a 11093 10957 3
a 11093 11092 2
a 11094 11095 13
a 11095 11578 11
a 11095 3339 9
a 11095 11094 13
a 11096 11097 29
a 11097 7956 9
a 11097 2571 2
a 11097 11096 29
a 11098 8064 22
a 11098 11099 16
a 11098 9699 14
a 11099 11588 20
a 11099 11098 16
a 11099 11100 13
a 11100 11099 13
a 11101 147 15
a 11102 11103 34
a 11103 11642 4
a 11103 9358 24
a 11103 11102 34
a 11104 504 51
a 11104 11401 145
a 11105 1983 14
a 11106 1985 1
a 11107 681 4
a 11107 680 16
a 11108 10825 2
a 11108 12832 8
a 11108 6060 7
a 11109 7029 9
a 11109 2107 8
a 11109 886 20
a 11110 9286 4
a 11110 7589 7
a 11110 7591 11
a 11111 9283 2
a 11111 9284 8
a 11111 11112 6
a 11112 11111 6
a 11113 3957 42
a 11113 3937 9
a 11113 8861 35
a 11114 10335 3
a 11115 10335 5
a 11116 10336 20
a 11116 8338 15
a 11117 11122 3
a 11118 8454 4
a 11118 9954 3
a 11118 11117 5
a 11119 11120 5
a 11119 12350 2
a 11119 11121 3
a 11120 8754 4
a 11121 9954 1
a 11121 11120 3
a 11121 11119 3
a 11122 896 28
a 11122 11121 6
a 11123 7727 48
a 11123 11831 17
a 11124 11125 6
a 11124 11831 11
a 11124 11249 30
a 11125 11124 6
a 11125 11126 17
a 11125 11251 45
a 11126 11250 4
a 11126 11249 4
a 11126 11125 17
a 11127 11893 1
a 11127 7111 6
a 11128 12910 5
a 11128 7028 9
a 11128 4767 45
a 11129 11130 9
a 11129 11131 5
a 11129 13485 12
a 11130 11129 9
a 11130 13485 3
a 11130 6796 11
a 11131 11595 4
a 11131 9926 4
a 11131 11129 5
a 11132 4836 7
a 11133 5723 9
a 11134 2304 2
a 11135 5441 8
a 11135 5684 3
a 11135 9848 32
a 11138 10362 16
a 11139 10018 2
a 11139 11140 3
a 11140 9881 4
a 11141 10027 9
a 11141 10021 2
a 11142 6244 7
a 11143 8109 6
a 11144 7296 9
a 11144 11143 3
a 11145 71 1
a 11145 8089 35
a 11146 8815 12
a 11147 12623 9
a 11148 11147 4
a 11148 3308 15
a 11149 11147 7
a 11149 11148 13
a 11150 11242 4
a 11150 692 3
a 11150 9056 11
a 11151 8490 23
a 11152 853 5
a 11152 8577 29
a 11153 10329 8
a 11154 10935 22
a 11154 11246 9
a 11155 11545 12
a 11156 8965 2
a 11156 11160 19
a 11156 13449 6
a 11157 10512 14
a 11158 681 4
a 11158 458 24
a 11158 11107 3
a 11159 7658 9
a 11159 2142 9
a 11160 10837 2
a 11160 8964 10
a 11160 1862 24
a 11161 11162 4
a 11161 9442 5
a 11162 11161 4
a 11163 8383 7
a 11163 12483 19
a 11164 10935 32
a 11164 11006 17
a 11165 145 6
a 11165 8055 7
a 11165 12481 18
a 11166 9164 2
a 11166 63 14
a 11167 11505 4
a 11167 6600 13
a 11167 11168 10
a 11168 11167 10
a 11169 11170 5
a 11170 6600 28
a 11170 11019 22
a 11170 11169 5
a 11171 11172 8
a 11171 11923 5
a 11171 9173 7
a 11171 13543 18
a 11172 11171 8
a 11173 621 94
a 11173 12306 52
a 11174 9436 11
a 11175 10757 1
a 11175 54 6
a 11176 10236 1
a 11177 12133 1
a 11177 7528 12
a 11178 12134 1
a 11178 13038 19
a 11179 2444 1
a 11179 11178 34
a 11180 11179 1
a 11180 10981 17
a 11181 2445 1
a 11181 11180 30
a 11182 11183 9
a 11183 10938 50
a 11183 11182 9
a 11184 1143 32
a 11185 12246 4
a 11185 10284 2
a 11186 4828 24
a 11187 2160 12
a 11188 5715 4
a 11188 11872 11
a 11188 12565 19
a 11189 3795 16
a 11189 3907 28
a 11189 8731 21
a 11190 1046 6
a 11190 7842 23
a 11190 7841 21
a 11191 11192 12
a 11192 12119 5
a 11192 9685 26
a 11192 11191 12
a 11193 2689 3
a 11194 2688 3
a 11195 1017 24
a 11196 12823 9
a 11196 10676 11
a 11196 12822 13
a 11197 9362 13
a 11198 2075 40
a 11199 13320 51
a 11200 8659 23
a 11200 8526 13
a 11200 4264 76
a 11201 5605 26
a 11202 8802 43
a 11203 8065 5
a 11204 9742 1
a 11204 8500 40
a 11204 9738 4
a 11205 12442 13
a 11205 9861 2
a 11206 12442 2
a 11206 9861 13
a 11207 11208 13
a 11207 11209 2
a 11208 3568 21
a 11208 11209 10
a 11209 492 5
a 11210 8018 57
a 11210 759 23
a 11211 5761 8
a 11211 5760 23
a 11211 5768 40
a 11211 5773 9
a 11212 9017 18
a 11212 11272 19
a 11212 11213 62
a 11213 11240 6
a 11213 11502 25
a 11213 11212 62
a 11214 927 16
a 11214 926 16
a 11214 3551 27
a 11214 3536 28
a 11215 5453 1
a 11216 9312 5
a 11217 7051 6
a 11217 7050 11
a 11217 12645 10
a 11218 13286 24
a 11219 11219 35
a 11219 11219 35
a 11219 13563 3
a 11220 3590 1
a 11220 3588 13
a 11220 3589 16
a 11221 2688 19
a 11222 5425 14
a 11223 3611 5
a 11223 4805 6
a 11223 12206 8
a 11224 3331 1
a 11224 3336 62
a 11225 10682 4
a 11225 10681 4
a 11225 11227 4
a 11226 10687 3
a 11226 11227 9
a 11226 11229 8
a 11227 11225 4
a 11227 10685 8
a 11227 11226 9
a 11228 10685 2
a 11229 10687 5
a 11229 11226 8
a 11229 10689 13
a 11230 11556 8
a 11230 9292 11
a 11230 8122 46
a 11231 567 62
a 11232 826 30
a 11233 10262 16
a 11233 2808 1
a 11234 6379 17
a 11235 5232 24
a 11235 10983 19
a 11235 12660 9
a 11236 6598 52
a 11236 6696 15
a 11236 6706 19
a 11237 4823 24
a 11238 4967 11
a 11238 10580 4
a 11238 10571 6
a 11238 10570 13
a 11239 7980 32
a 11240 11213 6
a 11241 5327 13
a 11241 3546 12
a 11241 5321 18
a 11241 8773 12
a 11242 11150 4
a 11243 6750 1
a 11243 9204 46
a 11243 6749 11
a 11244 11245 12
a 11245 9053 4
a 11245 4566 7
a 11245 11244 12
a 11247 11847 7
a 11248 8701 9
a 11249 11126 4
a 11249 11250 3
a 11249 11124 30
a 11250 11126 4
a 11250 11249 3
a 11250 12079 13
a 11251 11125 45
a 11252 10009 8
a 11253 8060 10
a 11254 8061 1
a 11254 10992 4
a 11254 9794 3
a 11255 11545 6
a 11255 12723 1
a 11255 2175 5
a 11256 3645 66
a 11256 7711 6
a 11257 12288 12
a 11258 11261 1
a 11258 12107 20
a 11259 11265 1
a 11259 11262 23
a 11260 11264 1
a 11260 3677 5
a 11260 12106 3
a 11261 11259 1
a 11262 11266 1
a 11262 11263 12
a 11263 11267 1
a 11263 11268 26
a 11264 11260 1
a 11264 10905 10
a 11265 11258 1
a 11266 11262 1
a 11266 11265 22
a 11267 11263 1
a 11267 11266 13
a 11268 7092 1
a 11268 3862 1
a 11269 5867 32
a 11269 9107 38
a 11269 5570 38
a 11270 8540 20
a 11271 12202 2
a 11271 3586 11
a 11271 10911 12
a 11272 11212 19
a 11272 12590 40
a 11272 8180 33
a 11272 5396 8
a 11273 3903 20
a 11273 7484 5
a 11273 8376 12
a 11274 10882 10
a 11275 4826 5
a 11275 11826 12
a 11275 4830 5
a 11276 6620 2
a 11277 11695 12
a 11277 11398 56
a 11277 11399 11
a 11278 6589 24
a 11278 6627 29
a 11278 6691 7
a 11279 8904 4
a 11279 11279 31
a 11279 11279 31
a 11280 6213 1
a 11281 10111 71
a 11282 10470 15
a 11282 5428 21
a 11282 9482 13
a 11283 2447 7
a 11284 3563 2
a 11285 9408 6
a 11286 2553 2
a 11287 2552 3
a 11288 13098 1
a 11288 10007 14
a 11289 12590 15
a 11289 10958 1
a 11290 11291 2
a 11290 13405 6
a 11291 2082 36
a 11292 10363 2
a 11292 9548 10
a 11292 9547 22
a 11293 1144 1
a 11294 2662 9
a 11294 2673 4
a 11294 2686 4
a 11295 3798 60
a 11296 7567 9
a 11296 11321 3
a 11297 11989 48
a 11297 11302 16
a 11298 10157 15
a 11298 10155 5
a 11299 816 23
a 11300 12013 1
a 11300 8353 4
a 11300 11301 9
a 11302 12461 1
a 11302 9655 5
a 11303 3983 1
a 11304 3920 18
a 11305 2749 1
a 11306 2746 1
a 11307 12998 2
a 11308 4069 5
a 11309 286 2
a 11310 1663 7
a 11311 9707 19
a 11312 7755 2
a 11313 4250 3
a 11314 4102 1
a 11315 9727 1
a 11316 5690 5
a 11317 3202 7
a 11318 4733 3
a 11319 6212 1
a 11320 6214 4
a 11321 10469 1
a 11321 11296 3
a 11322 2796 7
a 11323 10369 9
a 11324 4377 1
a 11325 4183 3
a 11326 4112 4
a 11327 4265 1
a 11328 7914 2
a 11329 3339 21
a 11330 1221 3
a 11330 9233 1
a 11331 7389 1
a 11332 11333 4
a 11332 7800 1
a 11333 7800 2
a 11333 405 7
a 11334 9500 1
a 11335 8800 1
a 11336 11337 13
a 11337 11340 10
a 11337 11338 48
a 11337 11336 13
a 11338 11341 9
a 11338 11382 10
a 11338 11337 48
a 11339 11341 22
a 11339 11340 38
a 11340 11337 10
a 11340 11341 38
a 11340 11339 38
a 11341 11338 9
a 11341 11340 38
a 11341 11339 22
a 11342 12152 3
a 11342 12445 43
a 11343 12979 2
a 11344 4144 4
a 11345 4144 3
a 11346 4268 2
a 11347 2516 22
a 11348 10444 2
a 11349 11350 11
a 11350 9654 10
a 11350 11349 11
a 11350 9653 9
a 11351 12120 4
a 11351 7258 3
a 11352 7652 1
a 11352 11353 3
a 11353 2181 4
a 11354 11065 1
a 11354 11066 1
a 11355 9110 1
a 11356 10259 1
a 11357 1352 29
a 11357 1791 1
a 11358 2018 11
a 11358 13482 1
a 11359 5682 11
a 11359 10171 4
a 11359 10171 17
a 11360 1356 5
a 11360 1350 1
a 11360 1175 4
a 11361 2694 18
a 11362 8699 10
a 11362 2667 13
a 11362 2697 16
a 11363 2018 4
a 11363 167 3
a 11363 11364 1
a 11364 11363 1
a 11365 12642 12
a 11366 5232 21
a 11366 5211 8
a 11366 11576 17
a 11367 8314 12
a 11367 3642 7
a 11367 8586 1
a 11368 11373 27
a 11369 11370 6
a 11370 11369 6
a 11370 11371 17
a 11370 11377 10
a 11371 8526 14
a 11371 11378 11
a 11371 11370 17
a 11372 11373 10
a 11372 8527 27
a 11372 13425 11
a 11373 11372 10
a 11373 11368 27
a 11373 11728 19
a 11373 11374 10
a 11374 11375 10
a 11374 11727 20
a 11374 12360 25
a 11374 11373 10
a 11375 11374 10
a 11375 11376 10
a 11375 8524 5
a 11375 11726 20
a 11376 11375 10
a 11376 12384 17
a 11376 11377 9
a 11377 11378 14
a 11377 11376 9
a 11377 11370 10
a 11378 11371 11
a 11378 8525 10
a 11378 11377 14
a 11379 800 12
a 11379 798 14
a 11379 11805 6
a 11380 816 26
a 11380 823 45
a 11380 817 19
a 11381 3647 6
a 11381 3815 5
a 11382 11338 10
a 11383 10328 4
a 11383 13590 8
a 11383 3363 33
a 11384 5898 7
a 11384 11385 8
a 11384 5897 9
a 11385 11384 8
a 11386 2278 4
a 11386 2279 4
a 11386 11387 7
a 11387 11386 7
a 11387 7908 14
a 11387 7908 15
a 11388 11389 7
a 11388 7907 16
a 11388 7907 14
a 11389 2259 12
a 11389 11388 7
a 11389 2246 33
a 11390 3352 7
a 11390 3353 14
a 11390 3353 14
a 11391 2256 7
a 11391 2272 17
a 11391 2269 16
a 11392 2251 2
a 11392 2268 12
a 11392 11393 7
a 11393 11392 7
a 11393 2290 13
a 11393 2290 14
a 11394 2769 8
a 11395 2312 21
a 11396 2313 14
a 11397 130 13
a 11397 30 20
a 11397 13606 22
a 11398 7614 21
a 11398 2559 22
a 11398 11277 56
a 11399 11400 9
a 11399 11688 7
a 11399 11277 11
a 11400 11695 8
a 11400 11399 9
a 11400 11401 15
a 11401 11400 15
a 11401 11104 145
a 11401 11695 18
a 11402 6414 5
a 11402 11403 21
a 11402 6464 5
a 11403 6414 7
a 11403 6873 24
a 11403 11402 21
a 11404 1184 41
a 11404 1183 1
a 11404 1181 7
a 11405 2298 2
a 11405 13152 12
a 11406 1654 1
a 11406 7448 8
a 11407 13365 20
a 11407 11207 3
a 11408 135 56
a 11409 1214 1
a 11409 1215 1
a 11410 1385 3
a 11410 1388 31
a 11410 1389 29
a 11411 766 21
a 11412 13488 7
a 11412 10707 3
a 11412 10704 12
a 11413 10701 8
a 11413 11414 6
a 11413 10702 4
a 11414 12083 3
a 11414 11413 6
a 11414 10702 8
a 11415 12699 2
a 11415 13338 1
a 11415 12938 9
a 11416 731 14
a 11416 9237 16
a 11417 9063 7
a 11417 5290 69
a 11417 9064 10
a 11418 9903 3
a 11418 9244 11
a 11418 6808 13
a 11419 5334 18
a 11420 8184 1
a 11420 12954 6
a 11421 6885 1
a 11421 11420 1
a 11422 10608 17
a 11422 5053 4
a 11423 9153 20
a 11424 10899 30
a 11425 7454 5
a 11425 11426 9
a 11425 11454 11
a 11426 11425 9
a 11427 11429 13
a 11428 7268 2
a 11428 9299 1
a 11428 11429 15
a 11429 11427 13
a 11429 11430 8
a 11429 11428 15
a 11430 11429 8
a 11431 9767 6
a 11432 11433 7
a 11433 11017 2
a 11433 7510 13
a 11433 11432 7
a 11434 10705 12
a 11434 11440 10
a 11434 9836 11
a 11435 11436 8
a 11435 8409 7
a 11435 4501 23
a 11435 9395 58
a 11436 4420 23
a 11436 8783 39
a 11436 11441 7
a 11436 11435 8
a 11437 11438 1
a 11437 1221 9
a 11438 11437 1
a 11438 12731 6
a 11439 6797 10
a 11439 11440 15
a 11440 11703 15
a 11440 11439 15
a 11440 11434 10
a 11441 9388 7
a 11441 11436 7
a 11441 4530 63
a 11442 5840 8
a 11442 5839 23
a 11442 11443 9
a 11443 5834 8
a 11443 5835 23
a 11443 11442 9
a 11444 8332 9
a 11444 8325 22
a 11444 9761 6
a 11444 11655 6
a 11445 9771 19
a 11446 9921 3
a 11446 11447 6
a 11446 9913 12
a 11447 9913 6
a 11447 9914 3
a 11447 11446 6
a 11448 6804 5
a 11448 10765 4
a 11448 9247 10
a 11449 8027 9
a 11450 2742 16
a 11451 2461 14
a 11451 1531 11
a 11452 5765 18
a 11453 8573 14
a 11453 10615 12
a 11454 11425 11
a 11455 7268 33
a 11456 4436 32
a 11456 4439 33
a 11456 4555 15
a 11457 8400 9
a 11457 11458 5
a 11457 8389 14
a 11458 11729 5
a 11458 11457 5
a 11458 11459 3
a 11458 6855 14
a 11459 11458 3
a 11459 8402 12
a 11459 11460 3
a 11460 11459 3
a 11460 11838 4
a 11460 11729 12
a 11461 2709 16
a 11462 2794 11
a 11462 13515 8
a 11462 11463 2
a 11463 11462 2
a 11464 5835 6
a 11464 5832 29
a 11464 5839 2
a 11465 5587 9
a 11466 5456 26
a 11467 6711 10
a 11467 6389 17
a 11467 11468 9
a 11468 11467 9
a 11469 6489 4
a 11469 6728 25
a 11469 6567 30
a 11470 8326 32
a 11471 7823 23
a 11472 11473 12
a 11473 12093 11
a 11473 3921 8
a 11473 11472 12
a 11474 7599 1
a 11475 7601 2
a 11476 7602 2
a 11477 8668 1
a 11478 11479 11
a 11479 6326 12
a 11479 9810 10
a 11479 11478 11
a 11480 5590 4
a 11480 5719 4
a 11480 11481 3
a 11481 11480 3
a 11481 7500 27
a 11481 13586 17
a 11482 8308 71
a 11483 12500 1
a 11483 4086 18
a 11483 3885 29
a 11484 840 15
a 11484 841 25
a 11484 11485 7
a 11485 11484 7
a 11486 11487 15
a 11487 8814 1
a 11487 8808 10
a 11487 11486 15
a 11488 8648 6
a 11489 3665 44
a 11490 11492 4
a 11491 11492 2
a 11492 11490 4
a 11492 11491 2
a 11492 5875 5
a 11493 7562 8
a 11494 8134 11
a 11495 11496 15
a 11496 11495 15
a 11496 3356 5
a 11496 3355 20
a 11497 1570 5
a 11497 10230 2
a 11498 11499 6
a 11499 7175 2
a 11499 4197 5
a 11499 11498 6
a 11500 6025 3
a 11500 6038 16
a 11500 11559 23
a 11501 6544 26
a 11502 2075 56
a 11502 11213 25
a 11502 12041 7
a 11503 8699 27
a 11504 11559 5
a 11504 12620 2
a 11504 11557 23
a 11505 11167 4
a 11505 11506 8
a 11505 9160 15
a 11506 11505 8
a 11507 11508 1
a 11508 161 12
a 11508 125 19
a 11508 11507 1
a 11509 11510 3
a 11509 12382 4
a 11510 11509 3
a 11510 8572 13
a 11511 11048 2
a 11511 9017 1
a 11511 8602 11
a 11512 11513 7
a 11512 8602 9
a 11512 11514 14
a 11513 11512 7
a 11513 11514 8
a 11513 8604 9
a 11514 11513 8
a 11514 8605 6
a 11514 11512 14
a 11515 11517 4
a 11516 11517 3
a 11517 11515 4
a 11517 11516 3
a 11517 8351 4
a 11518 6471 50
a 11518 6739 9
a 11518 8487 33
a 11519 11520 20
a 11520 11519 20
a 11520 7750 1
a 11521 4128 25
a 11522 11523 27
a 11523 11522 27
a 11523 7389 8
a 11523 10603 12
a 11524 9523 4
a 11524 11529 12
a 11524 9524 9
a 11525 8625 9
a 11525 8624 9
a 11525 11526 10
a 11526 11525 10
a 11527 13099 18
a 11528 8624 2
a 11529 9522 8
a 11529 10482 19
a 11529 11524 12
a 11530 10009 13
a 11531 6374 10
a 11531 13263 7
a 11532 11533 2
a 11533 11532 2
a 11533 8603 14
a 11533 11534 14
a 11534 11533 14
a 11535 468 10
a 11535 13609 11
a 11535 13599 8
a 11536 9014 8
a 11536 13217 1
a 11536 8603 6
a 11537 11538 17
a 11538 12612 10
a 11538 5990 8
a 11538 11537 17
a 11539 2117 20
a 11539 11540 9
a 11539 2110 45
a 11539 11543 9
a 11540 2915 12
a 11540 2120 20
a 11540 11539 9
a 11541 2576 13
a 11542 12018 10
a 11543 2115 20
a 11543 8224 42
a 11543 11539 9
a 11544 8107 14
a 11545 8417 6
a 11545 11255 6
a 11545 11155 12
a 11546 12775 9
a 11547 10433 19
a 11548 13569 7
a 11549 5294 8
a 11549 5292 6
a 11549 13569 5
a 11550 11617 7
a 11550 11671 4
a 11551 1789 20
a 11551 1782 10
a 11551 13091 1
a 11552 3991 8
a 11552 12807 8
a 11552 3627 4
a 11553 7922 28
a 11554 6288 15
a 11554 10357 22
a 11554 6281 15
a 11554 6289 18
a 11555 11556 8
a 11556 247 9
a 11556 11555 8
a 11556 11230 8
a 11557 11561 2
a 11557 13548 4
a 11557 11504 23
a 11558 12881 4
a 11558 13548 6
a 11558 11559 21
a 11559 11504 5
a 11559 11500 23
a 11559 11558 21
a 11560 13547 4
a 11560 11563 5
a 11560 11561 5
a 11561 11557 2
a 11561 11560 5
a 11561 11563 7
a 11562 13547 5
a 11563 11560 5
a 11563 12880 1
a 11563 11561 7
a 11564 2226 18
a 11565 11566 10
a 11566 11764 4
a 11566 11766 13
a 11566 11565 10
a 11567 6189 19
a 11567 6188 20
a 11567 6180 10
a 11568 7170 1
a 11568 11569 24
a 11568 6355 3
a 11569 11568 24
a 11570 11571 12
a 11571 10627 3
a 11571 6684 5
a 11571 11570 12
a 11572 10386 2
a 11572 11633 4
a 11572 13227 5
a 11573 6815 6
a 11573 6842 6
a 11573 11574 8
a 11574 11573 8
a 11574 11575 4
a 11574 11579 8
a 11575 11574 4
a 11575 6842 7
a 11575 11580 14
a 11576 11366 17
a 11577 11578 29
a 11578 8837 60
a 11578 11095 11
a 11578 11577 29
a 11579 8401 1
a 11579 11580 4
a 11579 11574 8
a 11580 11579 4
a 11580 1222 6
a 11580 11575 14
a 11581 11582 11
a 11582 6202 5
a 11582 6216 10
a 11582 11581 11
a 11583 5191 4
a 11584 7159 28
a 11585 6868 24
a 11586 8917 28
a 11587 1101 18
a 11588 12768 4
a 11588 11099 20
a 11588 11589 9
a 11589 8804 40
a 11589 12163 47
a 11589 11588 9
a 11590 11824 24
a 11590 9592 6
a 11591 11592 12
a 11592 11591 12
a 11592 8333 6
a 11592 5428 8
a 11593 11594 1
a 11594 11593 1
a 11594 8692 1
a 11594 8691 12
a 11595 11131 4
a 11595 11597 5
a 11595 11596 10
a 11596 8442 22
a 11596 8439 1
a 11596 11595 10
a 11597 9926 4
a 11597 11595 5
a 11597 9927 14
a 11598 8461 6
a 11599 11600 10
a 11600 11599 10
a 11600 9994 2
a 11600 5143 5
a 11601 10748 8
a 11602 11603 18
a 11603 2663 38
a 11603 11602 18
a 11603 11604 13
a 11604 8707 26
a 11604 2672 10
a 11604 11603 13
a 11605 10583 16
a 11606 9926 8
a 11606 9260 20
a 11606 6796 14
a 11607 8574 4
a 11607 11879 4
a 11607 11877 5
a 11607 11878 7
a 11608 10565 12
a 11608 10750 8
a 11608 11879 11
a 11609 11614 8
a 11610 8439 8
a 11611 11612 5
a 11612 11876 12
a 11612 11611 5
a 11612 9423 7
a 11613 10567 11
a 11614 11609 8
a 11614 9918 12
a 11614 9913 4
a 11615 7760 1
a 11615 1218 5
a 11616 12817 45
a 11616 3226 20
a 11616 3274 16
a 11617 10961 8
a 11618 2768 12
a 11619 13617 1
a 11619 11618 6
a 11619 9794 4
a 11620 11621 8
a 11621 2238 19
a 11621 2239 10
a 11621 11620 8
a 11622 5291 27
a 11623 6650 10
a 11624 9116 6
a 11625 11626 5
a 11626 11625 5
a 11626 11627 3
a 11626 9116 2
a 11627 11626 3
a 11628 10392 18
a 11629 7360 1
a 11630 2963 38
a 11630 3525 5
a 11631 8432 7
a 11631 7757 2
a 11632 148 16
a 11632 9974 44
a 11632 12124 25
a 11633 11572 4
a 11633 10387 10
a 11633 6002 9
a 11634 5475 28
a 11635 5623 5
a 11635 5644 7
a 11635 11636 5
a 11636 11635 5
a 11637 5986 17
a 11638 7898 6
a 11639 11631 2
a 11639 12714 8
a 11640 9814 10
a 11641 11642 4
a 11642 3537 23
a 11642 11103 4
a 11642 11641 4
a 11643 2415 4
a 11643 2167 1
a 11643 12722 8
a 11644 11645 11
a 11645 9815 10
a 11645 9814 2
a 11645 11644 11
a 11646 10618 1
a 11647 8881 8
a 11648 11649 10
a 11649 11648 10
a 11649 3870 17
a 11649 3812 4
a 11650 11651 23
a 11651 5728 6
a 11651 5273 2
a 11651 11650 23
a 11652 3330 2
a 11652 11653 13
a 11653 11652 13
a 11654 12638 3
a 11654 12931 10
a 11654 12639 10
a 11655 12638 3
a 11655 11444 6
a 11655 12639 10
a 11656 6488 8
a 11656 10670 8
a 11656 11914 11
a 11657 6549 15
a 11658 654 6
a 11658 11 16
a 11658 11825 17
a 11659 10384 4
a 11659 5995 31
a 11659 11662 15
a 11660 11661 11
a 11661 3700 9
a 11661 2579 22
a 11661 11660 11
a 11662 11659 15
a 11663 11847 12
a 11663 13185 3
a 11663 11664 12
a 11664 11663 12
a 11665 8911 12
a 11666 8704 8
a 11667 8769 57
a 11667 5343 16
a 11667 12787 18
a 11668 4345 6
a 11668 13000 7
a 11668 11669 14
a 11669 11668 14
a 11670 4345 18
a 11671 8410 5
a 11672 11671 6
a 11672 11617 4
a 11673 8497 14
a 11674 13187 1
a 11674 2307 35
a 11674 2291 50
a 11675 11676 18
a 11676 232 7
a 11676 11675 18
a 11676 248 14
a 11677 9849 25
a 11678 11679 17
a 11679 6857 3
a 11679 1223 13
a 11679 11678 17
a 11680 9045 27
a 11681 10937 4
a 11682 2298 1
a 11683 11684 10
a 11684 3226 18
a 11684 3283 11
a 11684 11683 10
a 11685 3231 16
a 11685 3268 18
a 11685 11686 16
a 11686 3255 22
a 11686 3305 33
a 11686 11685 16
a 11687 6934 15
a 11688 11399 7
a 11689 11738 14
a 11689 4953 19
a 11689 11690 6
a 11689 11770 13
a 11690 11689 6
a 11691 2295 4
a 11692 7445 7
a 11693 8001 7
a 11693 7999 25
a 11693 11926 4
a 11694 4832 21
a 11695 11277 12
a 11695 11400 8
a 11695 11401 18
a 11696 692 1
a 11696 693 7
a 11696 11697 11
a 11697 11696 11
a 11698 693 1
a 11698 2560 9
a 11698 11699 9
a 11699 11698 9
a 11700 6769 10
a 11701 540 20
a 11701 1319 7
a 11701 7511 10
a 11702 9916 3
a 11703 6799 3
a 11703 9920 10
a 11703 11440 15
a 11704 11705 9
a 11705 10864 1
a 11705 10863 7
a 11705 11704 9
a 11706 8152 5
a 11707 5149 2
a 11707 11708 3
a 11707 13101 1
a 11708 11707 3
a 11708 13100 1
a 11708 5159 6
a 11709 5118 12
a 11709 10548 15
a 11709 5115 9
a 11710 11711 2
a 11711 12085 2
a 11711 12086 14
a 11711 11710 2
a 11712 7359 28
a 11713 13222 1
a 11713 3654 23
a 11714 2888 13
a 11714 11715 6
a 11714 3985 11
a 11715 9669 27
a 11715 3770 27
a 11715 11714 6
a 11716 6463 13
a 11716 10548 12
a 11716 12687 8
a 11717 6862 4
a 11717 11718 7
a 11717 8982 10
a 11718 8983 4
a 11718 8982 3
a 11718 11717 7
a 11718 11719 9
a 11719 8984 4
a 11719 11718 9
a 11719 8982 12
a 11720 12792 3
a 11720 11909 2
a 11720 9341 17
a 11721 11736 5
a 11721 11722 8
a 11721 3876 21
a 11722 11721 8
a 11723 11732 15
a 11724 5115 4
a 11725 11730 11
a 11725 9266 25
a 11725 6777 11
a 11726 11727 10
a 11726 11375 20
a 11726 12384 12
a 11727 11726 10
a 11727 11374 20
a 11727 11728 10
a 11728 13426 10
a 11728 11373 19
a 11728 11727 10
a 11729 11458 5
a 11729 8400 10
a 11729 11460 12
a 11730 11901 3
a 11730 11899 4
a 11730 11725 11
a 11731 11901 5
a 11732 7656 6
a 11732 7657 14
a 11732 11723 15
a 11733 7951 16
a 11734 180 11
a 11735 13540 1
a 11735 8781 10
a 11735 8772 36
a 11736 11721 5
a 11736 11737 7
a 11736 3795 16
a 11737 11736 7
a 11738 11689 14
a 11739 834 46
a 11739 4809 18
a 11739 12756 7
a 11740 182 1
a 11740 8015 4
a 11740 11741 9
a 11741 11740 9
a 11742 2780 6
a 11743 9335 9
a 11743 11744 6
a 11743 8268 7
a 11744 9334 21
a 11744 11743 6
a 11744 11745 7
a 11745 11748 6
a 11745 11744 7
a 11745 11746 10
a 11746 8268 8
a 11746 11745 10
a 11746 11747 7
a 11747 11749 1
a 11747 11746 7
a 11747 8261 19
a 11748 11745 6
a 11749 11747 1
a 11749 8269 10
a 11749 8271 4
a 11750 11921 14
a 11751 6572 2
a 11751 6564 10
a 11751 11752 6
a 11752 6443 17
a 11752 11751 6
a 11753 11761 13
a 11754 8404 2
a 11754 11755 6
a 11754 6848 12
a 11755 11754 6
a 11756 3609 48
a 11757 11763 8
a 11757 11763 58
a 11757 8810 16
a 11758 5353 13
a 11759 8773 20
a 11760 10646 34
a 11761 11332 33
a 11761 11753 13
a 11762 3594 33
a 11763 11757 8
a 11763 11757 58
a 11763 11764 15
a 11764 11763 15
a 11764 8810 8
a 11764 11566 4
a 11765 13540 10
a 11766 11566 13
a 11767 3596 3
a 11768 7609 19
a 11769 5992 38
a 11770 10755 4
a 11770 10754 7
a 11770 11689 13
a 11771 11772 7
a 11772 11771 7
a 11772 2724 8
a 11772 3221 28
a 11772 2723 10
a 11773 5736 8
a 11774 3219 7
a 11775 5938 10
a 11775 5937 34
a 11775 11948 9
a 11776 4244 35
a 11777 5293 48
a 11778 3368 21
a 11779 2318 1
a 11780 11781 9
a 11781 11780 9
a 11781 5020 4
a 11781 5036 23
a 11782 6616 5
a 11782 10114 4
a 11782 9313 14
a 11783 12125 1
a 11784 5509 12
a 11785 13583 5
a 11786 11787 8
a 11787 6684 2
a 11787 9140 3
a 11787 11786 8
a 11788 7612 7
a 11789 11790 1
a 11790 4192 5
a 11790 11789 1
a 11790 7862 5
a 11791 9137 18
a 11792 10317 26
a 11793 12037 23
a 11794 8375 24
a 11795 11796 7
a 11796 11795 7
a 11796 4442 14
a 11796 4489 9
a 11797 11798 7
a 11798 6758 11
a 11798 12711 13
a 11798 11797 7
a 11799 11800 12
a 11800 7862 6
a 11800 11799 12
a 11800 12369 1
a 11800 7200 6
a 11801 505 6
a 11802 5246 5
a 11803 6980 1
a 11803 6979 9
a 11804 4624 4
a 11805 11379 6
a 11806 6871 7
a 11807 9992 2
a 11807 10276 14
a 11808 5969 6
a 11809 11810 8
a 11810 3189 7
a 11810 3191 6
a 11810 11809 8
a 11811 2636 4
a 11812 11813 8
a 11812 12019 9
a 11812 12110 4
a 11813 11812 8
a 11814 6188 32
a 11815 807 4
a 11815 805 18
a 11816 805 4
a 11816 11818 9
a 11817 11816 4
a 11817 806 66
a 11818 11816 9
a 11818 11819 3
a 11818 792 2
a 11819 792 3
a 11819 794 6
a 11820 11821 7
a 11821 797 13
a 11821 791 11
a 11821 11820 7
a 11822 11823 10
a 11823 4824 1
a 11823 11822 10
a 11823 4819 13
a 11824 11590 24
a 11825 11658 17
a 11826 11275 12
a 11827 11828 29
a 11828 778 34
a 11828 9122 28
a 11828 11827 29
a 11829 11830 6
a 11830 4830 6
a 11830 11829 6
a 11830 4831 18
a 11831 11124 11
a 11831 11123 17
a 11831 11832 20
a 11832 11831 20
a 11833 11834 21
a 11834 9593 8
a 11834 9592 17
a 11834 11833 21
a 11835 3603 5
a 11835 8773 23
a 11835 11836 10
a 11836 8774 6
a 11836 8781 36
a 11836 11835 10
a 11837 9320 11
a 11838 8402 11
a 11838 8394 14
a 11838 11460 4
a 11839 6842 8
a 11839 11840 4
a 11839 9894 9
a 11840 9895 11
a 11840 11839 4
a 11840 10776 8
a 11841 6844 3
a 11841 9895 4
a 11841 9899 21
a 11842 8445 5
a 11843 6563 40
a 11843 6492 17
a 11843 6530 13
a 11844 9585 8
a 11844 11845 5
a 11844 9590 21
a 11845 11844 5
a 11846 9593 76
a 11847 11247 7
a 11847 11663 12
a 11847 8705 4
a 11848 8701 7
a 11848 12591 15
a 11849 11850 7
a 11850 3759 12
a 11850 4056 8
a 11850 11849 7
a 11851 5633 21
a 11852 10209 5
a 11852 9334 12
a 11852 9336 6
a 11853 5859 8
a 11853 5868 13
a 11853 12336 48
a 11854 6932 23
a 11855 5864 12
a 11855 11871 7
a 11855 5859 16
a 11856 9784 4
a 11856 4236 35
a 11856 10432 55
a 11857 10340 32
a 11858 6359 8
a 11859 12149 2
a 11859 3020 18
a 11859 12086 9
a 11860 11861 12
a 11861 541 10
a 11861 11865 10
a 11861 11860 12
a 11862 5814 29
a 11863 10855 22
a 11864 10844 46
a 11865 11861 10
a 11865 12086 10
a 11865 1243 13
a 11866 12 1
a 11866 632 11
a 11866 261 21
a 11867 16 1
a 11867 678 4
a 11868 11867 1
a 11868 7836 14
a 11869 1077 1
a 11869 1076 42
a 11869 2926 43
a 11870 2435 35
a 11870 9802 15
a 11870 1079 15
a 11871 5666 8
a 11871 11855 7
a 11871 5863 38
a 11872 12338 1
a 11872 11188 11
a 11872 5525 3
a 11873 11874 28
a 11874 11873 28
a 11874 12572 37
a 11874 1695 8
a 11875 5762 1
a 11875 9007 12
a 11875 10456 18
a 11876 11612 12
a 11876 10532 14
a 11876 10527 16
a 11877 3122 3
a 11877 10751 13
a 11877 11607 5
a 11878 10585 4
a 11878 11607 7
a 11878 11879 8
a 11879 11607 4
a 11879 11608 11
a 11879 11878 8
a 11880 987 34
a 11880 987 47
a 11880 968 1
a 11881 2023 23
a 11881 2030 1
a 11881 2031 12
a 11882 899 17
a 11882 8617 18
a 11883 7963 1
a 11884 3249 46
a 11885 10915 4
a 11886 7631 2
a 11887 6665 14
a 11888 1006 15
a 11888 979 2
a 11888 976 48
a 11889 964 9
a 11889 7186 13
a 11889 9619 13
a 11889 8754 3
a 11890 4027 5
a 11891 7962 3
a 11892 10409 5
a 11892 10408 6
a 11892 11893 14
a 11893 11127 1
a 11893 12864 1
a 11893 11892 14
a 11894 7123 3
a 11894 7121 6
a 11894 11895 3
a 11895 7138 11
a 11895 11894 3
a 11895 7137 5
a 11896 6406 19
a 11897 3266 2
a 11898 5655 10
a 11899 11900 3
a 11899 11902 13
a 11899 11730 4
a 11900 11899 3
a 11900 11901 4
a 11900 11902 5
a 11901 11730 3
a 11901 11731 5
a 11901 11900 4
a 11902 11903 1
a 11902 11899 13
a 11902 11900 5
a 11903 11902 1
a 11904 9266 6
a 11905 3259 2
a 11905 3264 14
a 11905 3306 17
a 11906 11907 9
a 11907 12052 4
a 11907 7682 3
a 11907 11906 9
a 11908 11909 11
a 11909 11720 2
a 11909 11911 4
a 11909 11908 11
a 11910 11911 12
a 11911 11909 4
a 11911 11910 12
a 11911 9207 4
a 11912 8653 4
a 11913 11914 22
a 11914 11913 22
a 11914 10670 17
a 11914 11656 11
a 11915 10568 14
a 11916 11917 2
a 11916 10313 14
a 11917 3926 5
a 11917 11916 2
a 11918 10582 14
a 11919 8168 13
a 11920 9149 12
a 11920 12822 10
a 11920 12823 18
a 11921 6427 13
a 11921 9277 9
a 11921 9279 17
a 11921 11750 14
a 11922 9363 14
a 11923 11171 5
a 11924 8006 9
a 11925 6188 10
a 11926 11693 4
a 11927 10907 10
a 11927 7093 1
a 11928 8003 18
a 11929 8002 7
a 11929 10495 23
a 11929 8004 18
a 11930 9427 4
a 11931 11932 12
a 11931 7785 29
a 11931 10485 29
a 11932 11931 12
a 11932 11933 7
a 11932 7790 21
a 11933 7803 10
a 11933 7785 13
a 11933 11932 7
a 11934 7781 8
a 11935 4521 10
a 11936 11937 1
a 11936 252 7
a 11937 7838 12
a 11937 11936 1
a 11938 3008 3
a 11938 1075 9
a 11938 8677 44
a 11939 6152 9
a 11939 11974 7
a 11939 11940 5
a 11940 6152 8
a 11940 6154 18
a 11940 11939 5
a 11941 1140 9
a 11942 6230 7
a 11943 6229 6
a 11944 11945 4
a 11944 8249 7
a 11944 10346 28
a 11945 11944 4
a 11945 8249 8
a 11945 10345 18
a 11946 5816 2
a 11946 4237 8
a 11947 8282 5
a 11947 8281 9
a 11947 10396 12
a 11948 11775 9
a 11949 2400 3
a 11949 3075 5
a 11949 2399 15
a 11950 11081 26
a 11950 8379 5
a 11951 5142 7
a 11951 12683 10
a 11951 12011 4
a 11952 12449 1
a 11952 12219 36
a 11953 269 2
a 11954 1237 1
a 11954 7544 36
a 11954 7543 24
a 11955 5109 1
a 11956 4720 2
a 11957 150 3
a 11958 11081 2
a 11958 11082 2
a 11959 13135 1
a 11959 13134 1
a 11960 2804 2
a 11962 5154 2
a 11963 6171 2
a 11964 3138 2
a 11964 7259 2
a 11965 12219 4
a 11965 7260 6
a 11966 7260 1
a 11966 11965 6
a 11967 2678 21
a 11968 3735 20
a 11969 11970 11
a 11970 4090 9
a 11970 11969 11
a 11970 7404 25
a 11971 2612 10
a 11972 147 1
a 11972 7613 19
a 11972 88 31
a 11973 425 4
a 11974 11939 7
a 11974 6155 24
a 11974 6155 21
a 11975 9807 6
a 11975 12286 49
a 11975 10248 39
a 11976 2591 4
a 11976 2593 1
a 11976 2600 14
a 11977 10275 19
a 11977 13397 22
a 11978 13006 2
a 11979 9712 28
a 11980 9663 1
a 11980 11042 11
a 11981 6005 10
a 11982 478 1
a 11983 3635 17
a 11983 2712 42
a 11983 2713 19
a 11984 13296 10
a 11985 3187 15
a 11985 3182 34
a 11985 9498 11
a 11986 10799 2
a 11987 10991 1
a 11987 8186 3
a 11988 6953 3
a 11988 11979 12
a 11989 11988 4
a 11990 3277 9
a 11991 4111 21
a 11992 5630 36
a 11993 10462 4
a 11994 3717 29
a 11995 4533 1
a 11996 7813 24
a 11996 7930 43
a 11996 9094 3
a 11997 11998 4
a 11998 11997 4
a 11998 10923 12
a 11998 10922 4
a 11999 6787 4
a 11999 6785 1
a 11999 6786 17
a 12000 8270 1
a 12001 4310 5
a 12002 12004 2
a 12002 4443 13
a 12003 12002 2
a 12003 12004 1
a 12004 10719 1
a 12004 4551 14
a 12005 7387 20
a 12006 8799 11
a 12007 8704 4
a 12008 4945 4
a 12008 4941 32
a 12008 10500 13
a 12009 7684 28
a 12009 9883 7
a 12010 7925 16
a 12011 11951 4
a 12012 1279 13
a 12013 11300 1
a 12014 3074 3
a 12015 8705 5
a 12016 4075 10
a 12016 4047 23
a 12016 4047 26
a 12017 999 6
a 12018 6005 18
a 12018 5991 56
a 12018 11542 10
a 12019 12599 5
a 12019 11812 9
a 12019 8824 18
a 12020 8869 5
a 12021 7178 6
a 12022 12023 13
a 12023 2187 6
a 12023 2195 11
a 12023 12022 13
a 12024 5663 11
a 12025 6850 9
a 12026 2031 15
a 12027 9589 16
a 12028 10625 22
a 12029 9809 8
a 12029 12030 7
a 12029 9810 13
a 12030 12029 7
a 12031 6396 8
a 12032 3869 18
a 12033 2006 16
a 12034 827 5
a 12035 7199 5
a 12036 4037 29
a 12037 10317 2
a 12037 3363 3
a 12037 11793 23
a 12038 2402 3
a 12038 2403 8
a 12038 12039 14
a 12039 9105 12
a 12039 6880 16
a 12039 12038 14
a 12040 3407 12
a 12040 3411 27
a 12040 3413 10
a 12041 11502 7
a 12042 6304 10
a 12043 6458 24
a 12044 9075 26
a 12045 7462 18
a 12046 7632 1
a 12046 4629 18
a 12047 12236 6
a 12047 8608 6
a 12047 12237 13
a 12048 6927 3
a 12049 8462 16
a 12050 12113 1
a 12050 2685 16
a 12050 4017 19
a 12051 12052 11
a 12052 12051 11
a 12052 9196 10
a 12052 11907 4
a 12054 3660 1
a 12055 4017 2
a 12056 3891 4
a 12057 3818 2
a 12058 3878 28
a 12058 4067 24
a 12058 3739 24
a 12059 12060 1
a 12059 12561 1
a 12060 12061 1
a 12060 12429 152
a 12061 9668 10
a 12062 8362 1
a 12062 13242 1
a 12063 12920 3
a 12064 4846 1
a 12064 12065 7
a 12065 4905 3
a 12065 12064 7
a 12066 864 8
a 12067 7419 2
a 12067 12066 2
a 12068 6790 14
a 12069 3524 2
a 12070 6400 8
a 12071 2473 4
a 12071 2477 2
a 12072 3960 6
a 12072 8786 3
a 12073 11173 42
a 12074 12077 40
a 12074 55 5
a 12075 1220 29
a 12076 9679 10
a 12076 12076 48
a 12076 12076 48
a 12077 4891 5
a 12077 12074 40
a 12077 9979 6
a 12078 6841 3
a 12078 8389 12
a 12078 9070 11
a 12079 11250 13
a 12080 8255 22
a 12081 7790 5
a 12081 10507 21
a 12082 13197 1
a 12082 4006 67
a 12082 13198 3
a 12083 11414 3
a 12084 3850 9
a 12084 10310 17
a 12084 12648 14
a 12085 11711 2
a 12086 11865 10
a 12086 11859 9
a 12086 11711 14
a 12087 4490 50
a 12087 4356 10
a 12088 3830 12
a 12088 13506 12
a 12088 7064 14
a 12089 2733 2
a 12090 6515 2
a 12091 6375 6
a 12092 2369 55
a 12093 11473 11
a 12094 871 8
a 12094 40 11
a 12094 7610 36
a 12094 2186 49
a 12095 8564 5
a 12096 12852 1
a 12096 8109 1
a 12096 12108 2
a 12097 9303 3
a 12098 8529 90
a 12099 4455 4
a 12100 2655 8
a 12101 7211 4
a 12102 4309 8
a 12102 10281 5
a 12103 6841 6
a 12103 12078 12
a 12104 9081 26
a 12105 8480 5
a 12106 11261 20
a 12107 12106 1
a 12107 11264 3
a 12109 1881 42
a 12110 11812 4
a 12111 12112 2
a 12111 2184 12
a 12112 12111 2
a 12112 2750 21
a 12113 12050 1
a 12114 3750 26
a 12115 3870 1
a 12116 6760 4
a 12117 1992 32
a 12118 12119 14
a 12119 7307 4
a 12119 11192 5
a 12119 12118 14
a 12120 12157 2
a 12120 7258 4
a 12121 12951 1
a 12121 12304 1
a 12121 12304 15
a 12122 13330 3
a 12122 12143 6
a 12122 12124 24
a 12123 12143 1
a 12123 12144 3
a 12123 12304 8
a 12124 11632 25
a 12124 12122 24
a 12124 4978 7
a 12125 11783 1
a 12125 1749 13
a 12126 36 1
a 12126 749 8
a 12127 3615 9
a 12128 3839 5
a 12129 8930 6
a 12129 12131 6
a 12130 263 1
a 12130 1261 6
a 12131 263 1
a 12131 12130 2
a 12132 5322 17
a 12132 5355 13
a 12133 2443 1
a 12133 7527 16
a 12134 12133 1
a 12134 11177 2
a 12135 1253 7
a 12136 12135 1
a 12136 13042 1
a 12137 13005 2
a 12138 8235 15
a 12139 12140 15
a 12140 9626 27
a 12140 9629 6
a 12140 12139 15
a 12141 9089 5
a 12141 7812 8
a 12141 9088 30
a 12142 12143 3
a 12143 12123 1
a 12143 12122 6
a 12145 7422 8
a 12146 8963 1
a 12146 12145 3
a 12147 7917 2
a 12148 553 17
a 12149 11859 2
a 12149 11026 11
a 12151 7960 2
a 12152 11342 3
a 12152 11336 2
a 12153 2787 2
a 12154 7253 13
a 12155 1106 4
a 12155 1385 30
a 12155 1435 29
a 12156 4975 8
a 12157 4960 8
a 12158 6599 1
a 12159 8673 2
a 12160 11033 1
a 12160 11029 10
a 12161 6731 2
a 12161 6526 44
a 12161 6683 39
a 12162 10684 11
a 12163 11589 47
a 12163 9700 13
a 12164 7932 1
a 12165 9825 2
a 12166 2002 2
a 12166 9378 5
a 12167 9673 1
a 12168 6966 4
a 12169 1063 8
a 12169 1060 18
a 12169 1058 50
a 12170 2718 26
a 12171 12173 8
a 12172 12173 4
a 12173 12171 8
a 12173 12172 4
a 12173 5341 5
a 12175 5715 30
a 12176 12882 1
a 12176 6981 8
a 12177 8792 5
a 12177 12178 5
a 12177 8210 8
a 12178 12177 5
a 12179 9759 1
a 12179 13614 3
a 12179 9342 15
a 12180 10370 22
a 12181 10173 5
a 12182 6311 8
a 12184 7935 6
a 12185 5575 1
a 12185 5639 11
a 12185 7860 2
a 12186 4267 2
a 12187 7906 7
a 12188 9718 1
a 12189 3272 2
a 12190 13283 6
a 12191 5851 13
a 12192 5745 7
a 12193 5648 7
a 12194 8626 24
a 12194 12513 2
a 12195 7441 3
a 12195 7448 3
a 12196 12774 1
a 12196 13418 8
a 12197 4411 10
a 12198 9885 1
a 12198 2956 15
a 12198 4 22
a 12199 6 1
a 12199 391 42
a 12199 19 10
a 12200 1099 1
a 12200 13618 12
a 12201 12202 1
a 12202 11271 2
a 12202 12201 1
a 12202 3426 6
a 12203 9061 3
a 12203 8986 3
a 12203 3360 1
a 12204 5358 17
a 12205 3612 7
a 12206 11223 8
a 12207 1715 20
a 12207 1722 17
a 12208 10237 1
a 12208 1266 24
a 12209 2311 23
a 12211 12222 1
a 12211 10923 24
a 12212 12213 2
a 12213 3245 2
a 12213 12212 2
a 12214 12215 2
a 12215 625 13
a 12215 12583 5
a 12215 12214 2
a 12216 12217 2
a 12217 12583 4
a 12217 12216 2
a 12217 602 35
a 12218 6981 2
a 12219 12220 2
a 12219 11965 4
a 12219 11952 36
a 12220 12219 2
a 12221 8686 2
a 12222 12211 1
a 12223 3290 2
a 12224 2211 6
a 12225 3595 31
a 12226 10204 29
a 12227 12228 4
a 12228 7296 1
a 12228 1571 10
a 12229 3745 1
a 12229 13169 12
a 12230 13169 2
a 12231 13601 6
a 12232 9603 29
a 12233 463 63
a 12233 9600 48
a 12233 10108 63
a 12234 1575 17
a 12234 2019 2
a 12235 788 14
a 12235 787 22
a 12236 8605 6
a 12236 12047 6
a 12236 12237 6
a 12237 12585 6
a 12237 12236 6
a 12237 12047 13
a 12238 11005 1
a 12238 12256 2
a 12239 9678 17
a 12240 9998 1
a 12240 9997 31
a 12240 4663 17
a 12241 7065 8
a 12242 4245 51
a 12243 3740 2
a 12244 13126 2
a 12244 9305 4
a 12244 9306 22
a 12245 10834 10
a 12246 3048 8
a 12248 12249 2
a 12248 10826 3
a 12249 2804 2
a 12249 12248 2
a 12250 10273 1
a 12250 12251 2
a 12251 12250 2
a 12251 10275 21
a 12252 12146 8
a 12252 10822 2
a 12253 9759 3
a 12254 7208 16
a 12255 6062 4
a 12256 9952 6
a 12257 7353 5
a 12258 4357 9
a 12259 5238 16
a 12260 13311 1
a 12260 12261 4
a 12260 10193 4
a 12261 13310 1
a 12261 10196 4
a 12261 12260 4
a 12262 12263 1
a 12262 12264 2
a 12263 12262 1
a 12263 12265 2
a 12264 12265 1
a 12264 11005 4
a 12265 12264 1
a 12265 12238 4
a 12266 10377 1
a 12266 5398 15
a 12266 12267 2
a 12267 12266 2
a 12267 5407 9
a 12268 2393 9
a 12269 10361 10
a 12270 9480 16
a 12271 121 2
a 12271 12270 6
a 12272 4334 1
a 12273 13341 1
a 12273 12950 3
a 12273 6453 4
a 12274 2984 1
a 12274 12276 1
a 12275 12274 1
a 12276 9951 1
a 12276 3522 26
a 12277 9054 1
a 12278 4187 1
a 12278 4181 1
a 12278 12279 1
a 12279 12278 1
a 12279 6375 18
a 12280 1672 4
a 12281 8685 3
a 12282 13414 1
a 12282 1135 15
a 12283 10800 4
a 12283 7812 1
a 12283 10802 36
a 12284 480 4
a 12285 2477 1
a 12285 12284 2
a 12286 11975 49
a 12286 6246 3
a 12286 8275 4
a 12287 12288 1
a 12287 11137 12
a 12288 12287 1
a 12288 12485 2
a 12289 12485 2
a 12289 12287 2
a 12290 8345 3
a 12290 12416 1
a 12290 7595 9
a 12291 286 1
a 12291 12292 2
a 12292 12291 2
a 12293 1858 1
a 12294 3677 1
a 12295 6245 11
a 12296 8405 8
a 12298 3324 2
a 12299 1767 7
a 12299 12300 6
a 12300 12073 29
a 12301 7061 2
a 12302 470 9
a 12303 6367 2
a 12304 12121 1
a 12304 12123 8
a 12305 6770 3
a 12306 11007 13
a 12306 284 46
a 12307 6681 6
a 12308 12426 1
a 12308 9859 16
a 12308 780 11
a 12309 12308 2
a 12309 779 1
a 12310 12311 1
a 12310 12484 1
a 12311 12310 1
a 12311 1777 3
a 12312 13282 1
a 12312 10884 9
a 12312 8714 45
a 12313 9539 12
a 12313 10427 4
a 12313 5826 29
a 12314 1263 13
a 12314 10227 22
a 12315 13499 18
a 12315 182 6
a 12315 12316 6
a 12316 12315 6
a 12317 4266 15
a 12318 10905 2
a 12319 2750 2
a 12320 2734 2
a 12321 12407 6
a 12321 12322 7
a 12322 11439 23
a 12323 10289 2
a 12323 4022 20
a 12323 10288 11
a 12324 3983 10
a 12325 10880 6
a 12326 12778 1
a 12326 9933 2
a 12327 12444 14
a 12327 12444 14
a 12328 10908 4
a 12329 3868 12
a 12330 12427 1
a 12330 12329 1
a 12331 3885 19
a 12334 6067 8
a 12335 5786 2
a 12336 11853 48
a 12337 8746 1
a 12338 11872 1
a 12339 6356 57
a 12340 4270 1
a 12341 4675 3
a 12342 4650 5
a 12343 12344 1
a 12343 6714 13
a 12343 7366 13
a 12344 12343 1
a 12344 6534 11
a 12344 12345 3
a 12345 6439 11
a 12345 12344 3
a 12345 4157 24
a 12346 5540 1
a 12347 10170 2
a 12348 7854 5
a 12348 12349 2
a 12349 975 18
a 12349 11119 2
a 12350 2033 27
a 12350 12348 2
a 12351 9342 2
a 12352 5800 3
a 12353 6022 4
a 12354 10272 1
a 12354 4598 2
a 12355 7915 1
a 12356 6251 2
a 12357 12778 2
a 12358 20 36
a 12359 12358 3
a 12359 1536 4
a 12360 11374 25
a 12361 8711 2
a 12362 4473 2
a 12363 1214 2
a 12363 1717 9
a 12364 9114 1
a 12364 12365 3
a 12365 3932 9
a 12366 7157 2
a 12367 453 23
a 12368 12367 4
a 12368 450 4
a 12369 11800 1
a 12370 4220 4
a 12371 5161 3
a 12371 12372 2
a 12372 13257 2
a 12372 12371 2
a 12373 9795 2
a 12373 438 12
a 12374 442 12
a 12374 9795 4
a 12374 12373 5
a 12375 4265 4
a 12376 4145 1
a 12377 5215 2
a 12378 5754 1
a 12379 2064 18
a 12379 2041 14
a 12379 2042 17
a 12380 9584 1
a 12380 1218 1
a 12381 9584 1
a 12381 12380 3
a 12382 9901 1
a 12382 11331 3
a 12383 10333 1
a 12384 11376 17
a 12384 11726 12
a 12384 8525 2
a 12385 7765 1
a 12386 3690 4
a 12387 2757 2
a 12388 9060 2
a 12389 3724 6
a 12390 11023 23
a 12391 3274 38
a 12392 7964 3
a 12393 10223 2
a 12394 8103 1
a 12395 8030 1
a 12396 8105 1
a 12397 3812 4
a 12398 4025 2
a 12399 3750 11
a 12399 3834 7
a 12399 3631 38
a 12400 3215 5
a 12401 9044 19
a 12401 10179 1
a 12402 12401 3
a 12403 2728 1
a 12404 4023 5
a 12405 7027 9
a 12405 13105 8
a 12405 2109 38
a 12405 9661 7
a 12406 7622 26
a 12406 5605 8
a 12406 5464 1
a 12407 8411 22
a 12408 9892 3
a 12408 12407 5
a 12409 7286 1
a 12409 10857 3
a 12410 8099 1
a 12410 9029 5
a 12411 12410 1
a 12412 9029 1
a 12412 3638 4
a 12413 12412 7
a 12414 8411 18
a 12414 12423 86
a 12415 435 26
a 12415 10028 11
a 12416 12290 1
a 12416 7095 12
a 12417 12541 1
a 12417 5492 5
a 12417 5597 12
a 12418 7865 9
a 12419 8616 1
a 12419 12418 3
a 12420 10982 23
a 12421 12422 2
a 12421 8969 27
a 12422 37 67
a 12423 9405 11
a 12423 12414 86
a 12423 9457 20
a 12423 9390 18
a 12424 452 7
a 12424 1534 11
a 12425 452 5
a 12425 9873 15
a 12425 12424 4
a 12426 12309 2
a 12426 12308 1
a 12427 12428 1
a 12427 12430 2
a 12428 12059 151
a 12428 12329 1
a 12429 12430 2
a 12429 12428 2
a 12430 12331 1
a 12431 2531 2
a 12432 3846 3
a 12433 3214 3
a 12434 2674 2
a 12435 2784 14
a 12436 6965 9
a 12437 13059 1
a 12437 13058 2
a 12438 12439 1
a 12438 11205 15
a 12439 11204 11
a 12439 12438 1
a 12439 782 18
a 12440 9859 2
a 12440 12426 16
a 12441 8018 28
a 12442 11206 2
a 12442 12440 13
a 12442 8019 35
a 12443 3156 19
a 12443 1865 18
a 12444 10304 6
a 12445 3520 2
a 12445 13536 20
a 12446 3173 2
a 12446 7738 25
a 12447 289 5
a 12448 12538 4
a 12449 11952 1
a 12449 6979 1
a 12449 12450 5
a 12450 7300 4
a 12450 11952 5
a 12451 1040 1
a 12451 5 45
a 12452 8315 13
a 12452 3646 9
a 12452 3830 8
a 12453 1768 2
a 12454 485 19
a 12454 12833 10
a 12455 1725 7
a 12456 1726 67
a 12456 12455 5
a 12457 3351 22
a 12457 621 1
a 12458 9069 1
a 12458 6917 5
a 12459 12458 1
a 12459 10942 1
a 12460 9930 1
a 12460 9069 6
a 12461 7106 4
a 12461 12460 12
a 12462 7755 4
a 12463 76 1
a 12463 12462 4
a 12464 12465 1
a 12464 1230 21
a 12465 86 1
a 12465 12466 2
a 12466 82 6
a 12466 86 2
a 12467 7449 2
a 12468 12467 6
a 12469 8356 6
a 12470 13317 21
a 12470 4264 17
a 12470 3872 43
a 12471 3926 1
a 12472 4036 6
a 12473 4036 2
a 12474 7765 3
a 12475 3983 10
a 12476 4170 18
a 12476 4161 2
a 12476 9324 1
a 12477 12476 4
a 12477 9270 1
a 12478 10506 4
a 12478 4500 1
a 12479 262 43
a 12479 9805 10
a 12479 580 11
a 12480 12481 1
a 12480 1083 1
a 12480 1082 64
a 12481 12480 1
a 12481 12482 2
a 12481 11165 18
a 12483 13133 3
a 12485 12289 2
a 12485 7608 4
a 12486 3864 2
a 12487 3661 2
a 12488 626 32
a 12488 13027 2
a 12488 625 18
a 12489 67 2
a 12489 12490 7
a 12490 1997 8
a 12490 12489 7
a 12491 1954 10
a 12491 11145 6
a 12492 1956 6
a 12493 9660 47
a 12494 3816 2
a 12495 5846 1
a 12495 4108 9
a 12495 10187 3
a 12496 5846 1
a 12496 6020 35
a 12497 3164 4
a 12498 3164 2
a 12499 6853 34
a 12499 735 6
a 12500 11483 1
a 12501 4006 1
a 12502 12504 2
a 12502 4676 8
a 12503 4308 1
a 12503 4314 10
a 12504 10278 1
a 12504 12503 12
a 12505 12507 4
a 12507 2343 2
a 12507 2369 12
a 12508 8063 6
a 12508 3858 10
a 12508 3032 19
a 12509 2692 1
a 12510 3383 1
a 12511 1925 1
a 12511 1916 36
a 12511 13094 10
a 12512 9454 1
a 12512 96 26
a 12513 10107 2
a 12514 10994 3
a 12514 12515 1
a 12515 12514 1
a 12515 12517 2
a 12516 12514 2
a 12516 12517 1
a 12517 12516 1
a 12517 5934 5
a 12518 536 13
a 12519 3892 7
a 12520 3726 4
a 12521 5989 1
a 12522 6017 17
a 12523 5988 9
a 12523 12937 7
a 12523 5989 26
a 12524 3216 6
a 12526 3942 3
a 12527 1727 1
a 12527 1668 14
a 12527 1746 9
a 12528 2609 3
a 12529 2625 12
a 12530 11958 53
a 12531 12530 6
a 12531 13019 2
a 12532 12533 2
a 12532 13300 3
a 12533 12532 2
a 12533 13403 4
a 12534 9882 4
a 12534 10021 3
a 12535 10022 1
a 12536 10601 2
a 12537 10748 4
a 12538 12539 1
a 12538 11803 5
a 12539 12538 1
a 12539 12540 1
a 12541 12417 1
a 12542 10842 2
a 12543 2148 3
a 12544 7978 4
a 12545 9526 7
a 12546 400 4
a 12547 4538 11
a 12548 3702 20
a 12549 10314 2
a 12550 10962 2
a 12550 12551 1
a 12551 12550 1
a 12551 10996 13
a 12552 5940 31
a 12552 13132 4
a 12553 12554 2
a 12553 4255 1
a 12553 9060 1
a 12555 12291 3
a 12555 1621 16
a 12556 1610 11
a 12556 12555 2
a 12557 8649 1
a 12558 8518 2
a 12559 7961 3
a 12560 33 3
a 12560 7670 5
a 12561 12562 2
a 12562 7400 7
a 12563 12561 1
a 12563 12060 1
a 12564 13415 1
a 12564 857 1
a 12564 13408 10
a 12565 11188 19
a 12566 12420 1
a 12566 486 5
a 12567 10838 2
a 12568 2007 25
a 12568 12901 4
a 12568 2006 15
a 12569 8959 3
a 12569 12512 7
a 12570 5329 2
a 12571 6872 4
a 12572 11874 37
a 12573 9634 2
a 12574 6060 2
a 12575 6259 8
a 12577 5288 1
a 12578 63 22
a 12578 62 30
a 12579 436 16
a 12579 9714 2
a 12579 8664 2
a 12580 8568 13
a 12581 1502 16
a 12582 9519 5
a 12583 12215 5
a 12583 12217 4
a 12583 13026 2
a 12584 10944 1
a 12585 12237 6
a 12585 8605 5
a 12585 8606 3
a 12586 8607 11
a 12587 7444 9
a 12588 11048 15
a 12589 12590 10
a 12590 11289 15
a 12590 11272 40
a 12590 12589 10
a 12591 8699 25
a 12591 11848 15
a 12591 3746 7
a 12591 8700 6
a 12592 8805 2
a 12592 6028 5
a 12593 10966 8
a 12594 4037 3
a 12595 3774 23
a 12596 3213 3
a 12597 12598 6
a 12597 8360 14
a 12597 8360 23
a 12598 12597 6
a 12599 12019 5
a 12600 860 10
a 12602 8823 2
a 12602 8070 2
a 12603 9679 6
a 12604 7916 6
a 12605 7061 1
a 12606 3687 2
a 12607 2697 1
a 12608 10933 14
a 12608 4128 14
a 12608 8287 12
a 12609 9362 21
a 12609 10792 3
a 12610 8283 9
a 12611 4247 12
a 12611 4241 20
a 12611 3696 22
a 12612 5982 2
a 12612 11538 10
a 12612 12991 8
a 12613 6003 7
a 12614 5988 8
a 12615 5987 5
a 12616 6028 3
a 12616 6027 10
a 12616 6029 1
a 12617 12592 2
a 12618 6028 1
a 12619 6026 12
a 12620 11504 2
a 12621 4245 7
a 12622 4189 11
a 12623 12624 1
a 12623 8321 7
a 12624 12623 1
a 12624 11014 2
a 12624 7475 9
a 12625 7454 4
a 12625 9126 15
a 12625 12626 8
a 12626 12625 8
a 12627 5852 45
a 12628 6044 13
a 12629 8376 57
a 12630 9128 30
a 12630 6410 24
a 12630 4177 20
a 12631 6551 15
a 12631 6366 23
a 12631 6718 17
a 12632 11010 19
a 12633 4073 8
a 12634 9768 17
a 12635 7198 8
a 12636 9775 18
a 12637 9761 2
a 12638 11654 3
a 12638 11655 3
a 12638 12639 6
a 12639 12638 6
a 12639 11655 10
a 12639 11654 10
a 12640 5846 23
a 12641 5995 22
a 12642 8867 10
a 12642 12643 4
a 12642 11365 12
a 12643 12642 4
a 12644 8724 3
a 12644 8723 6
a 12644 8722 13
a 12645 7975 8
a 12645 7053 1
a 12645 11217 10
a 12646 10188 1
a 12646 10417 15
a 12646 5448 6
a 12647 3919 1
a 12647 9058 10
a 12647 3970 26
a 12648 12084 14
a 12649 4024 2
a 12650 9472 21
a 12651 8672 7
a 12652 2602 1
a 12653 3270 4
a 12654 3252 5
a 12654 3244 5
a 12654 12655 9
a 12655 12654 9
a 12656 3594 15
a 12657 3596 4
a 12658 2322 2
a 12659 3389 4
a 12660 11235 9
a 12661 9474 3
a 12662 12663 6
a 12662 12663 17
a 12662 8939 25
a 12663 10504 2
a 12663 12662 6
a 12663 12662 17
a 12664 7790 16
a 12664 7994 18
a 12665 9833 9
a 12665 9457 47
a 12665 12851 21
a 12666 4906 12
a 12667 4271 35
a 12668 12669 3
a 12669 12668 3
a 12669 12670 4
a 12669 5875 6
a 12670 12669 4
a 12671 5883 4
a 12672 2494 4
a 12672 12912 3
a 12673 5279 2
a 12674 7495 3
a 12675 6274 9
a 12675 6271 13
a 12675 6270 26
a 12676 6310 4
a 12677 9811 29
a 12678 9631 10
a 12679 6222 2
a 12680 6222 1
a 12681 9628 4
a 12682 5143 23
a 12682 5141 34
a 12682 12683 13
a 12683 11951 10
a 12683 5141 25
a 12683 12682 13
a 12684 5114 1
a 12684 5112 12
a 12684 5116 3
a 12685 12686 1
a 12685 7392 3
a 12685 5111 26
a 12686 12685 1
a 12686 5117 10
a 12686 4158 37
a 12687 11716 8
a 12688 9171 15
a 12689 12690 8
a 12689 4132 5
a 12689 3696 12
a 12690 12689 8
a 12691 6486 10
a 12692 8904 1
a 12692 6521 14
a 12692 9365 13
a 12693 6629 7
a 12694 6450 9
a 12695 6666 25
a 12695 6413 10
a 12695 6471 69
a 12696 6539 15
a 12696 9148 11
a 12696 6472 14
a 12697 6725 23
a 12698 6638 14
a 12698 9321 22
a 12698 6501 8
a 12699 11415 2
a 12700 4257 12
a 12701 7383 5
a 12701 8476 4
a 12701 12702 10
a 12702 8460 5
a 12702 7381 5
a 12702 12701 10
a 12703 8476 5
a 12703 8458 5
a 12703 12704 10
a 12704 8473 5
a 12704 8460 5
a 12704 12703 10
a 12705 10661 5
a 12706 12707 7
a 12707 6713 3
a 12707 10627 6
a 12707 12706 7
a 12708 6764 1
a 12709 12710 1
a 12709 5011 6
a 12709 12951 5
a 12710 4986 35
a 12710 12709 1
a 12711 6742 19
a 12711 7070 19
a 12711 11798 13
a 12712 9970 3
a 12713 12714 5
a 12714 9971 3
a 12714 12713 5
a 12714 11639 8
a 12715 9975 8
a 12716 10603 17
a 12717 9259 12
a 12718 10612 4
a 12718 12719 8
a 12718 10610 5
a 12719 10616 2
a 12719 10611 4
a 12719 12718 8
a 12720 10550 9
a 12721 6584 13
a 12721 8489 13
a 12721 8489 27
a 12722 11643 8
a 12723 11255 1
a 12724 1315 12
a 12725 9705 1
a 12725 13065 1
a 12726 2449 11
a 12727 8967 22
a 12728 8100 10
a 12728 614 9
a 12728 13030 2
a 12729 7010 2
a 12730 816 3
a 12731 11438 6
a 12732 3649 37
a 12733 5880 5
a 12734 472 3
a 12734 12828 3
a 12735 3036 5
a 12735 2899 1
a 12735 12736 2
a 12736 1569 25
a 12736 2899 1
a 12737 4147 1
a 12737 10878 17
a 12738 2295 46
a 12739 2342 9
a 12739 13368 1
a 12740 8818 2
a 12741 10943 13
a 12742 4544 2
a 12743 7707 1
a 12743 7724 1
a 12743 13057 18
a 12744 12745 2
a 12744 7663 2
a 12745 7719 10
a 12746 9954 3
a 12746 11118 5
a 12747 4486 6
a 12748 2488 1
a 12748 12911 4
a 12749 2080 34
a 12750 4508 4
a 12751 4506 4
a 12752 4557 4
a 12753 8148 1
a 12753 3540 1
a 12753 10097 7
a 12754 12998 1
a 12754 12755 3
a 12755 12754 3
a 12755 3937 5
a 12756 11739 7
a 12757 7048 1
a 12758 4080 5
a 12758 3689 4
a 12758 2601 17
a 12759 3437 2
a 12760 4789 3
a 12761 4790 3
a 12762 12763 3
a 12763 12764 2
a 12763 5902 1
a 12763 12762 3
a 12764 12763 2
a 12764 12932 3
a 12764 5899 22
a 12765 1494 4
a 12765 12766 3
a 12766 8159 1
a 12767 9657 2
a 12767 3947 22
a 12767 7521 7
a 12768 11588 4
a 12769 12770 3
a 12770 12769 3
a 12770 2769 15
a 12770 2285 56
a 12771 1326 19
a 12772 10159 2
a 12772 10157 8
a 12773 10154 2
a 12773 10161 1
a 12774 7348 1
a 12774 7628 2
a 12775 11546 9
a 12775 282 12
a 12775 3336 23
a 12776 7368 3
a 12777 12273 2
a 12777 7368 19
a 12778 12326 1
a 12778 12325 5
a 12779 10907 15
a 12780 12781 13
a 12781 7959 1
a 12781 10158 3
a 12781 12780 13
a 12782 3459 1
a 12783 211 2
a 12783 10218 12
a 12783 12784 8
a 12784 12783 8
a 12785 13249 1
a 12785 13248 18
a 12785 8494 14
a 12786 3664 38
a 12787 11667 18
a 12788 12789 9
a 12789 9269 2
a 12789 6765 4
a 12789 12788 9
a 12790 6768 1
a 12790 9923 5
a 12790 6769 14
a 12791 12792 7
a 12792 11720 3
a 12792 7682 3
a 12792 12791 7
a 12793 9923 2
a 12793 12794 4
a 12793 9263 6
a 12794 6768 2
a 12794 12793 4
a 12794 6767 4
a 12795 12796 12
a 12796 2762 2
a 12796 12795 12
a 12797 9320 19
a 12798 3272 10
a 12798 10216 21
a 12799 3572 4
a 12800 3573 14
a 12801 10796 15
a 12802 8223 2
a 12802 12059 28
a 12803 4035 1
a 12804 8532 1
a 12805 6688 5
a 12805 12806 3
a 12806 63 2
a 12806 12805 3
a 12807 11552 8
a 12808 4057 2
a 12809 4100 1
a 12810 3893 5
a 12810 3949 6
a 12810 12811 5
a 12811 12810 5
a 12812 9964 4
a 12812 2763 16
a 12812 8362 2
a 12813 9465 21
a 12813 101 2
a 12813 179 35
a 12814 403 1
a 12814 7957 15
a 12815 2201 9
a 12815 12814 5
a 12816 7354 1
a 12816 10223 38
a 12817 11616 45
a 12817 12816 7
a 12818 8027 7
a 12819 1862 4
a 12819 12820 3
a 12820 12819 3
a 12820 1861 14
a 12821 2803 2
a 12821 266 10
a 12822 12823 7
a 12822 11920 10
a 12822 11196 13
a 12823 11196 9
a 12823 12822 7
a 12823 11920 18
a 12824 4155 5
a 12825 10689 3
a 12825 10677 1
a 12825 10691 6
a 12826 8143 21
a 12827 3332 13
a 12828 471 38
a 12828 12734 3
a 12829 468 22
a 12829 7347 3
a 12830 12832 2
a 12830 6077 6
a 12830 10825 8
a 12831 6072 14
a 12831 12830 2
a 12832 12830 2
a 12832 12831 2
a 12832 6069 55
a 12833 9448 6
a 12834 12454 10
a 12834 10306 10
a 12835 6276 1
a 12835 12836 2
a 12835 12836 2
a 12836 10056 3
a 12836 12835 2
a 12836 12835 2
a 12837 12838 2
a 12837 6280 5
a 12838 6279 2
a 12838 12837 2
a 12839 1325 32
a 12839 8091 9
a 12840 1984 9
a 12840 12841 7
a 12841 71 38
a 12841 1979 1
a 12842 12843 1
a 12842 12844 5
a 12843 13560 1
a 12843 12842 1
a 12844 4779 1
a 12844 10818 62
a 12845 4780 1
a 12845 12846 6
a 12847 4773 1
a 12847 1915 34
a 12848 1880 7
a 12848 12847 9
a 12849 13095 1
a 12849 1913 7
a 12849 1916 4
a 12850 6160 5
a 12850 6163 1
a 12850 6165 6
a 12851 12665 21
a 12852 12096 1
a 12852 3321 2
a 12853 12852 2
a 12855 12310 1
a 12856 13208 9
a 12857 2705 9
a 12857 8553 8
a 12857 2794 34
a 12858 8275 8
a 12858 12859 4
a 12859 8248 4
a 12859 12858 5
a 12860 6253 4
a 12860 12862 3
a 12860 12861 3
a 12861 12862 1
a 12861 6259 8
a 12861 12860 3
a 12862 12861 1
a 12862 12860 3
a 12863 5354 4
a 12864 11127 1
a 12864 10408 7
a 12865 12867 6
a 12865 12868 1
a 12866 12865 3
a 12867 7885 1
a 12867 6246 1
a 12868 12865 1
a 12868 12332 3
a 12869 12870 2
a 12870 9642 3
a 12870 12869 2
a 12870 9643 2
a 12872 4674 2
a 12872 12871 2
a 12873 4629 1
a 12873 12874 2
a 12875 12873 2
a 12876 12877 2
a 12877 2803 5
a 12877 12333 2
a 12878 2933 2
a 12878 3127 12
a 12879 3078 9
a 12880 11563 1
a 12881 11558 4
a 12882 12176 1
a 12882 8643 12
a 12882 11028 8
a 12883 12884 1
a 12884 7802 1
a 12884 12183 1
a 12885 5411 3
a 12885 12886 5
a 12886 5410 10
a 12886 12885 5
a 12887 6289 3
a 12888 8363 3
a 12889 12890 2
a 12889 5716 4
a 12890 5522 2
a 12890 12889 2
a 12891 1062 1
a 12891 13148 15
a 12892 13373 1
a 12892 8061 6
a 12892 9794 2
a 12893 4597 7
a 12893 13165 2
a 12894 13161 4
a 12895 1662 7
a 12896 12897 3
a 12897 10267 3
a 12897 13162 2
a 12898 2878 2
a 12899 12194 7
a 12900 6889 1
a 12900 12901 11
a 12901 12568 4
a 12901 6889 11
a 12902 4443 2
a 12903 12904 3
a 12904 2806 3
a 12904 8274 3
a 12905 10263 3
a 12905 12906 3
a 12905 7884 3
a 12906 12905 3
a 12907 4605 2
a 12907 12908 4
a 12908 2805 4
a 12908 12907 4
a 12909 4660 3
a 12910 11128 5
a 12911 2808 2
a 12911 12748 4
a 12912 2876 2
a 12912 12672 3
a 12913 4598 9
a 12913 12914 5
a 12913 12914 5
a 12914 4689 6
a 12914 12913 5
a 12914 12913 5
a 12915 1658 4
a 12915 9640 2
a 12916 12915 2
a 12917 1657 4
a 12917 7878 3
a 12918 12917 3
a 12919 2661 2
a 12920 4736 4
a 12920 12210 3
a 12921 2514 3
a 12921 12922 4
a 12922 2517 3
a 12922 12921 4
a 12923 2507 5
a 12923 12924 5
a 12924 12925 2
a 12924 12923 5
a 12925 2511 9
a 12925 2508 71
a 12925 12924 2
a 12926 56 2
a 12926 12927 3
a 12927 4517 1
a 12927 12926 3
a 12928 2789 36
a 12929 3727 2
a 12930 2645 2
a 12930 13193 2
a 12931 11654 10
a 12932 12764 3
a 12933 10085 2
a 12934 3630 1
a 12935 3630 5
a 12936 5988 3
a 12937 12523 7
a 12938 4178 1
a 12938 13341 23
a 12938 7071 27
a 12938 11415 9
a 12939 6700 2
a 12939 12940 4
a 12940 6386 2
a 12940 12939 4
a 12941 8481 13
a 12941 8481 24
a 12941 13501 5
a 12942 7609 2
a 12943 12946 2
a 12944 6482 1
a 12944 6447 20
a 12945 12946 3
a 12945 12944 3
a 12946 12945 3
a 12946 9596 2
a 12947 12948 37
a 12948 12947 37
a 12948 12949 2
a 12948 5018 18
a 12949 12948 2
a 12950 6680 1
a 12950 13341 3
a 12951 12121 1
a 12951 4999 4
a 12952 6901 2
a 12952 7376 4
a 12952 10647 3
a 12953 7378 3
a 12953 4976 5
a 12953 7380 39
a 12955 8184 5
a 12956 11421 1
a 12957 8362 2
a 12958 7491 8
a 12959 8889 1
a 12960 3468 2
a 12961 12962 1
a 12961 9934 2
a 12961 12963 3
a 12962 12961 1
a 12962 12964 2
a 12962 12963 3
a 12963 8888 2
a 12963 12961 3
a 12963 12962 3
a 12964 12962 2
a 12965 12966 2
a 12966 4288 1
a 12966 4447 3
a 12966 12965 2
a 12967 12968 3
a 12967 4471 8
a 12968 4148 3
a 12968 12967 3
a 12969 5016 5
a 12970 2355 3
a 12970 12971 4
a 12971 4296 5
a 12971 12970 4
a 12972 12973 2
a 12973 6912 1
a 12973 6909 2
a 12974 6905 1
a 12974 12975 4
a 12975 2348 7
a 12975 12974 4
a 12976 6905 4
a 12976 12977 5
a 12977 2347 7
a 12977 12976 5
a 12978 12979 2
a 12979 4144 12
a 12979 11343 2
a 12979 12978 2
a 12980 4268 18
a 12980 4143 1
a 12981 4407 7
a 12981 12737 5
a 12982 4402 10
a 12983 3311 9
a 12983 10793 1
a 12984 12983 1
a 12985 4366 49
a 12985 12986 2
a 12986 6994 2
a 12986 12985 2
a 12987 6894 1
a 12987 6895 1
a 12988 10312 1
a 12988 13320 1
a 12989 3844 7
a 12989 12988 5
a 12990 3894 3
a 12991 12612 8
a 12992 12993 1
a 12993 4568 1
a 12993 10180 1
a 12993 12992 1
a 12994 9609 3
a 12994 9610 9
a 12995 13211 8
a 12995 9617 20
a 12995 3813 9
a 12996 6178 9
a 12997 6191 6
a 12998 12754 1
a 12998 11307 2
a 12998 3715 18
a 12999 6041 4
a 13000 13003 2
a 13000 13001 3
a 13000 11668 7
a 13001 13002 2
a 13001 13000 3
a 13001 4155 13
a 13002 13001 2
a 13002 13007 3
a 13002 4424 16
a 13003 13000 2
a 13003 5110 20
a 13003 13007 4
a 13004 13005 1
a 13005 13004 1
a 13005 12137 2
a 13005 8899 17
a 13005 9284 11
a 13006 11978 2
a 13006 13518 31
a 13007 10538 19
a 13007 13002 3
a 13007 13003 4
a 13008 8968 6
a 13008 13354 2
a 13009 6851 4
a 13009 8788 22
a 13009 6845 11
a 13010 13407 44
a 13010 10302 8
a 13011 13010 6
a 13012 13011 44
a 13012 10302 24
a 13014 1568 1
a 13014 13013 2
a 13015 7850 2
a 13015 9685 8
a 13016 2929 1
a 13016 1497 2
a 13016 2396 30
a 13017 487 1
a 13018 8950 6
a 13019 6972 13
a 13020 257 8
a 13021 695 3
a 13021 13020 2
a 13022 694 9
a 13022 13024 1
a 13022 13025 1
a 13023 13022 1
a 13023 111 28
a 13024 13022 1
a 13024 13023 1
a 13025 13024 1
a 13025 2560 21
a 13026 12583 2
a 13027 12488 2
a 13028 8758 5
a 13028 13029 1
a 13029 13028 1
a 13029 9706 35
a 13030 12728 2
a 13031 2520 9
a 13031 4502 10
a 13031 2523 68
a 13031 4453 50
a 13032 13039 1
a 13032 483 10
a 13033 33 1
a 13033 12560 4
a 13034 13035 2
a 13035 13034 2
a 13035 1286 10
a 13035 272 12
a 13036 7165 2
a 13037 7168 2
a 13038 486 1
a 13038 12420 5
a 13039 13038 1
a 13039 12134 19
a 13040 483 1
a 13040 7528 25
a 13040 13039 10
a 13041 488 1
a 13041 13040 6
a 13042 13044 1
a 13043 1298 8
a 13043 258 2
a 13044 258 1
a 13044 13043 2
a 13045 1253 1
a 13045 7833 29
a 13045 13042 8
a 13046 13045 6
a 13046 11181 1
a 13047 1256 65
a 13047 13494 3
a 13048 10130 1
a 13048 12743 11
a 13049 13068 7
a 13050 10134 2
a 13050 13049 9
a 13051 13050 8
a 13051 10135 2
a 13052 10139 2
a 13052 13051 5
a 13053 10138 2
a 13053 13052 5
a 13054 10137 1
a 13054 13053 7
a 13055 13054 6
a 13056 10228 1
a 13056 13055 13
a 13057 13575 6
a 13058 13056 12
a 13059 1331 1
a 13059 13058 1
a 13060 13059 3
a 13060 10045 17
a 13061 10229 6
a 13061 13060 2
a 13063 11080 4
a 13064 13070 8
a 13064 10225 1
a 13065 13064 17
a 13066 13065 2
a 13068 12725 2
a 13068 13067 2
a 13069 6546 5
a 13070 10226 2
a 13070 13048 9
a 13071 480 1
a 13071 7528 10
a 13072 7850 1
a 13072 13015 2
a 13073 6950 2
a 13074 13075 1
a 13074 1778 3
a 13075 13074 1
a 13075 1778 2
a 13076 397 1
a 13076 10306 2
a 13077 1817 3
a 13077 1816 10
a 13078 1817 2
a 13078 13077 3
a 13078 1818 98
a 13079 7621 1
a 13079 13078 13
a 13080 13079 3
a 13080 12436 25
a 13081 3437 3
a 13082 6991 7
a 13083 13082 4
a 13083 4775 2
a 13084 9736 1
a 13085 13084 1
a 13086 13087 1
a 13087 10998 21
a 13087 6973 1
a 13088 9449 3
a 13088 9450 20
a 13089 9449 1
a 13089 13088 3
a 13090 13096 3
a 13090 7385 1
a 13091 11551 1
a 13092 1101 8
a 13093 1468 1
a 13094 1948 2
a 13094 1925 10
a 13095 4774 1
a 13095 12849 1
a 13096 8097 25
a 13096 7385 4
a 13097 852 3
a 13098 13097 1
a 13098 852 3
a 13099 7843 1
a 13099 11527 18
a 13099 13159 7
a 13100 11708 1
a 13101 11707 1
a 13102 7181 35
a 13102 8749 18
a 13102 8748 6
a 13103 4736 3
a 13103 1657 8
a 13104 8710 16
a 13104 9988 9
a 13105 1800 1
a 13105 12405 8
a 13105 2084 41
a 13106 4666 3
a 13107 13108 2
a 13107 11163 9
a 13108 289 1
a 13108 13107 2
a 13109 11010 1
a 13110 5931 33
a 13111 10441 2
a 13112 10164 2
a 13112 10308 92
a 13112 5247 97
a 13113 13114 4
a 13114 10860 3
a 13114 10865 11
a 13114 13113 4
a 13115 4205 1
a 13116 4231 13
a 13116 4230 7
a 13116 13117 3
a 13117 9780 2
a 13117 9381 28
a 13117 13116 3
a 13118 5857 10
a 13118 5858 15
a 13118 10842 27
a 13118 5861 4
a 13119 9773 4
a 13119 9778 15
a 13119 9774 14
a 13120 5655 2
a 13121 5881 3
a 13122 5884 4
a 13123 7598 2
a 13124 7597 1
a 13125 9308 3
a 13126 12244 2
a 13127 7640 3
a 13127 11136 2
a 13128 13127 2
a 13129 7194 2
a 13130 9300 3
a 13131 7600 3
a 13132 13135 2
a 13132 13134 1
a 13132 5937 18
a 13133 7463 7
a 13133 12483 3
a 13134 11959 1
a 13134 10997 2
a 13135 13132 2
a 13135 5936 5
a 13136 434 15
a 13136 11022 41
a 13137 9408 1
a 13137 13136 8
a 13138 7729 31
a 13138 13137 6
a 13139 8618 3
a 13140 5709 4
a 13140 5541 10
a 13141 5541 1
a 13141 8989 14
a 13141 13140 10
a 13142 6193 3
a 13143 13145 3
a 13144 11961 3
a 13144 5154 10
a 13144 13145 1
a 13145 13144 1
a 13145 405 17
a 13146 6242 20
a 13146 6242 24
a 13146 6243 10
a 13147 5707 3
a 13148 1069 11
a 13149 5707 1
a 13149 10376 11
a 13149 10370 11
a 13150 5136 6
a 13151 5670 5
a 13152 2299 21
a 13152 11405 12
a 13152 5129 17
a 13153 895 1
a 13153 8665 4
a 13153 916 34
a 13154 6218 8
a 13155 13157 1
a 13157 6205 2
a 13157 13156 1
a 13158 5132 17
a 13158 5133 32
a 13158 5131 36
a 13159 7921 2
a 13159 13099 7
a 13159 10805 8
a 13160 12150 4
a 13160 13161 2
a 13161 12893 2
a 13161 13160 2
a 13162 7882 3
a 13162 12897 2
a 13163 10267 1
a 13163 13162 3
a 13164 13163 1
a 13164 4759 5
a 13165 11052 1
a 13166 7210 8
a 13167 13166 4
a 13167 9439 1
a 13168 13169 1
a 13168 3745 12
a 13169 13168 1
a 13169 12230 2
a 13169 13170 2
a 13170 13171 1
a 13170 3843 5
a 13171 3751 12
a 13171 13170 1
a 13171 13168 2
a 13172 13173 7
a 13173 6175 1
a 13173 6179 4
a 13173 13172 7
a 13174 9471 1
a 13174 13175 3
a 13175 9471 3
a 13175 7947 8
a 13176 2586 1
a 13176 3966 9
a 13176 2584 35
a 13177 7351 8
a 13178 8732 9
a 13179 4054 1
a 13180 4129 1
a 13181 13182 5
a 13181 5479 24
a 13182 5575 9
a 13182 13181 5
a 13183 10285 12
a 13184 8703 5
a 13185 11663 3
a 13185 8704 1
a 13185 8702 4
a 13186 7046 19
a 13187 11674 1
a 13188 3881 4
a 13189 1712 5
a 13190 3798 15
a 13190 2672 1
a 13190 8348 9
a 13192 7097 2
a 13193 2638 8
a 13193 12930 3
a 13194 7825 5
a 13194 13195 5
a 13195 13194 5
a 13195 7095 2
a 13196 3830 1
a 13197 12082 1
a 13197 137 1
a 13198 7824 4
a 13198 13197 3
a 13199 3367 1
a 13199 5300 19
a 13199 3369 16
a 13200 7064 1
a 13201 8300 8
a 13202 7816 2
a 13203 3727 2
a 13204 2613 5
a 13205 7442 24
a 13206 5935 6
a 13207 2707 6
a 13208 2794 10
a 13208 2150 1
a 13208 12856 9
a 13209 2679 1
a 13210 4099 2
a 13211 9609 1
a 13211 12995 8
a 13211 3877 30
a 13212 3813 2
a 13212 12995 9
a 13214 10971 7
a 13215 13216 8
a 13215 5316 13
a 13215 5304 5
a 13216 13215 8
a 13217 11536 1
a 13218 3816 1
a 13218 13219 1
a 13218 3654 39
a 13220 4084 2
a 13221 7763 7
a 13222 11713 1
a 13223 13224 1
a 13224 13223 1
a 13224 11713 8
a 13225 3624 1
a 13226 8533 11
a 13227 11572 5
a 13228 13229 8
a 13229 13228 8
a 13229 7361 11
a 13229 6002 15
a 13230 2752 8
a 13231 8537 3
a 13232 8537 4
a 13233 13234 4
a 13234 8527 7
a 13234 10983 2
a 13234 13233 4
a 13235 6032 4
a 13236 13237 1
a 13237 13236 1
a 13237 3586 6
a 13237 3585 11
a 13238 7405 6
a 13239 13238 3
a 13240 7858 5
a 13241 13240 5
a 13243 7223 1
a 13244 9543 1
a 13245 7217 3
a 13245 7473 14
a 13246 9578 1
a 13247 238 1
a 13247 13248 4
a 13247 215 19
a 13248 12785 18
a 13248 238 4
a 13249 12785 1
a 13250 10510 19
a 13250 8273 5
a 13250 7994 18
a 13251 7992 1
a 13252 9520 2
a 13253 9006 2
a 13254 4381 2
a 13255 10464 3
a 13256 12371 2
a 13256 13257 2
a 13257 13256 2
a 13257 10369 51
a 13258 13259 7
a 13259 5168 7
a 13259 5187 1
a 13259 13258 7
a 13260 5527 29
a 13261 8491 7
a 13262 3771 16
a 13263 11531 7
a 13264 4243 1
a 13266 8836 4
a 13267 13268 1
a 13268 9063 4
a 13268 13267 1
a 13268 9062 33
a 13269 9064 3
a 13270 10411 1
a 13272 10411 1
a 13272 13271 2
a 13272 7468 11
a 13273 12987 1
a 13274 13275 1
a 13274 13277 12
a 13275 13274 1
a 13275 493 21
a 13275 761 102
a 13275 759 24
a 13276 493 1
a 13276 13274 20
a 13277 755 20
a 13277 13275 12
a 13279 779 1
a 13279 13278 2
a 13280 6996 10
a 13280 13281 3
a 13280 13281 3
a 13281 9936 12
a 13281 13280 3
a 13281 13280 3
a 13282 12312 1
a 13283 5736 3
a 13283 13286 3
a 13283 12190 6
a 13284 5580 1
a 13284 5458 14
a 13284 5263 22
a 13285 757 1
a 13286 13283 3
a 13286 7495 23
a 13286 11218 24
a 13287 13584 10
a 13289 12980 2
a 13290 13291 1
a 13291 4278 5
a 13291 13292 1
a 13293 2766 2
a 13293 13371 4
a 13294 13295 1
a 13295 13294 1
a 13295 6947 12
a 13295 9936 16
a 13296 6865 1
a 13296 6863 12
a 13296 11984 10
a 13297 9326 2
a 13298 4459 3
a 13299 9864 7
a 13300 9664 6
a 13300 13299 4
a 13302 13303 3
a 13303 6664 1
a 13303 6566 2
a 13304 6581 1
a 13305 6661 1
a 13306 7492 1
a 13307 10204 24
a 13307 7489 6
a 13307 8865 15
a 13308 10195 2
a 13309 10196 1
a 13310 12261 1
a 13311 12260 1
a 13312 10193 1
a 13313 9370 10
a 13313 13314 6
a 13314 4490 4
a 13314 13313 6
a 13315 10737 1
a 13316 13317 5
a 13317 13316 5
a 13317 12470 21
a 13317 4024 10
a 13318 9182 12
a 13319 8455 1
a 13320 12988 1
a 13320 11199 51
a 13320 12989 4
a 13321 5248 10
a 13322 3430 8
a 13323 5694 11
a 13324 3936 1
a 13324 13325 7
a 13325 3799 7
a 13325 3936 7
a 13326 10597 2
a 13327 13398 2
a 13327 13399 13
a 13328 13329 1
a 13329 14 2
a 13329 13328 1
a 13330 12122 3
a 13331 8467 1
a 13332 6638 1
a 13333 8463 1
a 13334 6497 2
a 13335 13336 1
a 13336 13335 1
a 13336 21 41
a 13336 8679 9
a 13337 6440 1
a 13337 13367 2
a 13337 8479 15
a 13338 11415 1
a 13338 13339 2
a 13338 6398 19
a 13339 13338 2
a 13340 6566 3
a 13341 12273 1
a 13341 12938 23
a 13341 12777 3
a 13342 4862 1
a 13342 4876 11
a 13342 10523 27
a 13343 6604 1
a 13344 4143 1
a 13344 13288 2
a 13344 4273 11
a 13345 7944 1
a 13345 4 23
a 13346 3490 7
a 13347 13348 6
a 13348 13347 6
a 13348 3490 22
a 13349 13350 5
a 13350 13348 15
a 13350 13349 5
a 13351 10416 1
a 13352 161 2
a 13353 10094 2
a 13354 13353 4
a 13354 8961 2
a 13355 13356 2
a 13355 4316 19
a 13356 10281 1
a 13356 12102 5
a 13357 10872 3
a 13358 13322 1
a 13359 12003 6
a 13359 13358 2
a 13360 13359 1
a 13360 13322 2
a 13361 467 26
a 13362 7316 2
a 13363 3085 2
a 13364 3042 2
a 13365 6999 2
a 13366 10577 6
a 13366 4962 14
a 13366 10749 10
a 13367 13337 2
a 13368 8642 10
a 13369 13368 1
a 13369 12739 1
a 13370 8757 1
a 13370 8795 2
a 13371 2766 1
a 13371 51 5
a 13372 7734 2
a 13372 10992 6
a 13373 12892 1
a 13373 438 11
a 13374 13376 1
a 13374 12446 1
a 13375 13374 2
a 13375 7728 38
a 13376 9950 1
a 13377 758 36
a 13377 13378 3
a 13378 774 41
a 13378 8502 1
a 13379 765 30
a 13379 13377 4
a 13380 8648 21
a 13381 6519 5
a 13382 13393 18
a 13382 8802 17
a 13382 13383 30
a 13383 13384 1
a 13383 13387 1
a 13383 13382 30
a 13384 13383 1
a 13384 13387 1
a 13384 13388 7
a 13385 13388 4
a 13386 13387 3
a 13387 13383 1
a 13387 13384 1
a 13387 13386 3
a 13388 13385 4
a 13388 13384 7
a 13388 13389 9
a 13389 13388 9
a 13390 13391 3
a 13390 8802 6
a 13390 13392 5
a 13391 13390 3
a 13392 13390 5
a 13393 8801 26
a 13393 13382 18
a 13393 13394 3
a 13394 13393 3
a 13395 8801 5
a 13396 10273 22
a 13397 11977 22
a 13398 3860 2
a 13398 13401 7
a 13399 3946 2
a 13399 12767 23
a 13400 3555 46
a 13400 3554 2
a 13400 7327 5
a 13401 13400 11
a 13401 3549 18
a 13402 10084 7
a 13403 13402 3
a 13403 13402 7
a 13404 11978 1
a 13404 2106 9
a 13405 11291 6
a 13405 11090 3
a 13406 7262 17
a 13407 13010 44
a 13409 143 4
a 13409 13410 4
a 13410 1492 3
a 13411 1765 2
a 13411 1764 14
a 13411 13412 38
a 13412 1752 16
a 13412 280 2
a 13413 11185 11
a 13414 7506 3
a 13414 13413 7
a 13415 12563 34
a 13416 5782 4
a 13417 7531 3
a 13417 270 4
a 13418 3227 6
a 13418 7348 8
a 13419 13420 12
a 13420 2743 4
a 13420 2745 20
a 13420 13419 12
a 13421 7287 16
a 13422 9015 19
a 13423 13592 31
a 13423 766 22
a 13423 13424 15
a 13424 13423 15
a 13425 13426 8
a 13425 13426 20
a 13425 11372 11
a 13426 11728 10
a 13426 13425 8
a 13426 13425 20
a 13427 9123 5
a 13428 9672 51
a 13428 7727 2
a 13429 13430 6
a 13430 8480 5
a 13430 13431 6
a 13430 13429 6
a 13431 13430 6
a 13432 8480 4
a 13432 8474 4
a 13432 13433 6
a 13433 13432 6
a 13434 13299 6
a 13435 9240 6
a 13436 9703 2
a 13436 9702 16
a 13436 13406 1
a 13437 13438 6
a 13438 606 37
a 13438 605 11
a 13438 13437 6
a 13439 13442 9
a 13439 13440 2
a 13439 9675 26
a 13440 13439 2
a 13441 13442 2
a 13442 13439 9
a 13442 460 13
a 13442 13441 2
a 13443 13444 5
a 13444 3210 9
a 13444 13443 5
a 13445 8628 38
a 13446 13447 2
a 13447 2440 4
a 13447 13446 2
a 13447 7434 52
a 13448 13449 1
a 13449 13448 1
a 13449 1537 10
a 13449 11156 6
a 13450 13451 2
a 13451 2182 12
a 13451 13450 2
a 13451 1486 28
a 13452 13453 1
a 13453 2182 3
a 13453 13452 1
a 13453 2179 47
a 13454 13455 9
a 13455 9646 13
a 13455 9647 10
a 13455 13454 9
a 13456 9647 9
a 13457 13458 2
a 13458 7344 2
a 13458 13460 4
a 13458 13457 2
a 13459 13460 2
a 13460 13458 4
a 13460 6 14
a 13460 13459 2
a 13461 3176 6
a 13461 3178 10
a 13461 13462 2
a 13462 13461 2
a 13463 13464 2
a 13464 1790 6
a 13464 1783 14
a 13464 13463 2
a 13465 13466 2
a 13466 1783 14
a 13466 3178 4
a 13466 13465 2
a 13467 13468 1
a 13468 1782 9
a 13468 1478 18
a 13468 13467 1
a 13469 13470 1
a 13470 1482 19
a 13470 1789 11
a 13470 13469 1
a 13471 13472 2
a 13472 1115 10
a 13472 13471 2
a 13472 1117 10
a 13473 13474 1
a 13474 1471 9
a 13474 13477 6
a 13474 13473 1
a 13475 13476 2
a 13476 1477 15
a 13476 1472 14
a 13476 13475 2
a 13477 13474 6
a 13477 1469 15
a 13477 13478 1
a 13478 13477 1
a 13479 13481 4
a 13480 8863 4
a 13481 8863 4
a 13481 8876 6
a 13481 13479 4
a 13482 11358 1
a 13483 3085 1
a 13484 8775 8
a 13485 8442 4
a 13485 11130 3
a 13485 11129 12
a 13486 3150 3
a 13487 10705 25
a 13488 6798 2
a 13488 10705 2
a 13488 11412 7
a 13489 13490 8
a 13490 13489 8
a 13490 7579 12
a 13491 13492 5
a 13491 5926 21
a 13491 5925 17
a 13492 13491 5
a 13493 8078 8
a 13494 13046 1
a 13495 1258 13
a 13495 13496 1
a 13496 13495 1
a 13497 10217 1
a 13498 10217 5
a 13499 12315 18
a 13500 9852 7
a 13501 6697 1
a 13501 6591 6
a 13501 12941 5
a 13502 5051 14
a 13503 10701 6
a 13504 6851 4
a 13505 5053 15
a 13506 12088 12
a 13507 13508 1
a 13508 1403 37
a 13508 1431 14
a 13508 13507 1
a 13509 13510 1
a 13510 1485 10
a 13510 1206 34
a 13510 13509 1
a 13511 13512 2
a 13512 13511 2
a 13512 1474 13
a 13512 1473 21
a 13513 13514 2
a 13514 13513 2
a 13514 1384 11
a 13514 2462 12
a 13515 11462 8
a 13516 13517 1
a 13517 13516 1
a 13517 1627 5
a 13517 1626 44
a 13518 13006 31
a 13518 9660 5
a 13519 13520 3
a 13520 1204 5
a 13520 11035 3
a 13520 13519 3
a 13521 13522 1
a 13522 1440 22
a 13522 13521 1
a 13522 1437 19
a 13523 13524 1
a 13524 2051 6
a 13524 2023 2
a 13524 13523 1
a 13525 8222 3
a 13526 13527 13
a 13527 1744 1
a 13527 1743 14
a 13527 13526 13
a 13528 13529 1
a 13529 1607 20
a 13529 1611 21
a 13529 13528 1
a 13530 4415 1
a 13531 9146 2
a 13531 6552 15
a 13532 9147 2
a 13532 9139 5
a 13533 8782 6
a 13535 5373 2
a 13536 13537 1
a 13536 6934 14
a 13537 13536 1
a 13537 3520 20
a 13538 3520 5
a 13539 3497 1
a 13540 11735 1
a 13540 3546 8
a 13540 11765 10
a 13541 10646 17
a 13542 10951 20
a 13543 11171 18
a 13544 6054 5
a 13545 10537 6
a 13546 10538 7
a 13547 11562 5
a 13547 11560 4
a 13547 13548 7
a 13548 11557 4
a 13548 11558 6
a 13548 13547 7
a 13549 6029 1
a 13550 13551 7
a 13551 8468 4
a 13551 13550 7
a 13551 13552 10
a 13552 13551 10
a 13553 13554 2
a 13554 1869 9
a 13554 13553 2
a 13555 4085 2
a 13556 13557 5
a 13556 3791 3
a 13557 13556 5
a 13558 12602 2
a 13559 8816 1
a 13559 8819 9
a 13559 8818 11
a 13561 12842 1
a 13562 13563 14
a 13563 13562 14
a 13563 10974 3
a 13563 11219 3
a 13564 10974 7
a 13565 3278 12
a 13566 3238 5
a 13567 8638 4
a 13568 13569 6
a 13569 13568 6
a 13569 11548 7
a 13569 11549 5
a 13570 13571 6
a 13571 3636 1
a 13571 3794 8
a 13571 13570 6
a 13572 9713 9
a 13572 13573 3
a 13573 7922 5
a 13574 6009 15
a 13575 7708 1
a 13575 6960 131
a 13575 10898 5
a 13576 8269 14
a 13577 1843 8
a 13578 4263 27
a 13579 13580 9
a 13580 5589 11
a 13580 5744 9
a 13580 13579 9
a 13581 5780 6
a 13582 13583 7
a 13583 11785 5
a 13583 13582 7
a 13583 5582 10
a 13584 13287 10
a 13584 5679 24
a 13584 13585 7
a 13585 13584 7
a 13586 5674 5
a 13586 5471 1
a 13586 11481 17
a 13587 161 11
a 13587 13588 1
a 13587 9577 11
a 13588 13587 1
a 13589 10000 1
a 13590 10320 1
a 13590 10318 17
a 13590 11383 8
a 13591 13592 8
a 13592 770 9
a 13592 13591 8
a 13592 13423 31
a 13593 13594 2
a 13594 4663 11
a 13594 4577 7
a 13594 13593 2
a 13595 9337 4
a 13596 8032 16
a 13597 13598 10
a 13598 2797 2
a 13598 127 54
a 13598 13597 10
a 13599 11535 8
a 13600 13601 8
a 13601 13600 8
a 13601 12231 6
a 13601 122 34
a 13602 13603 7
a 13603 129 9
a 13603 128 19
a 13603 13602 7
a 13604 13605 8
a 13605 30 49
a 13605 13604 8
a 13605 9577 25
a 13606 122 5
a 13606 11397 22
a 13606 13607 7
a 13607 13606 7
a 13608 13609 8
a 13609 11535 11
a 13609 470 26
a 13609 13608 8
a 13610 7399 73
a 13611 13612 4
a 13611 1775 2
a 13612 9618 2
a 13612 13611 4
a 13613 8636 2
a 13614 12179 3
a 13615 10856 2
a 13615 490 21
a 13616 8798 10
a 13617 11619 1
a 13617 13373 4
a 13617 452 15
a 13618 1540 13
a 13618 379 31
a 13618 12200 12
a 13619 7734 6
a 13619 2768 10
a 13619 13372 5
a 13620 6640 34
